@relation ThresholdCurve

@attribute Instance_number numeric
@attribute 'True Positives' numeric
@attribute 'False Negatives' numeric
@attribute 'False Positives' numeric
@attribute 'True Negatives' numeric
@attribute 'False Positive Rate' numeric
@attribute 'True Positive Rate' numeric
@attribute Precision numeric
@attribute Recall numeric
@attribute Fallout numeric
@attribute FMeasure numeric
@attribute 'Sample Size' numeric
@attribute Lift numeric
@attribute Threshold numeric

@data
0,67853,0,67998,0,1,1,0.499466,1,0.500534,0.666192,1,1,0
1,67816,37,67657,341,0.994985,0.999455,0.500587,0.999455,0.499413,0.667067,0.997218,1.002243,0.02439
2,67813,40,67627,371,0.994544,0.99941,0.500687,0.99941,0.499313,0.667145,0.996975,1.002443,0.04
3,67810,43,67595,403,0.994073,0.999366,0.500794,0.999366,0.499206,0.667231,0.996717,1.002658,0.046512
4,67807,46,67581,417,0.993867,0.999322,0.500835,0.999322,0.499165,0.667257,0.996592,1.00274,0.05
5,67801,52,67544,454,0.993323,0.999234,0.500949,0.999234,0.499051,0.667339,0.996275,1.002969,0.051282
6,67798,55,67531,467,0.993132,0.999189,0.500986,0.999189,0.499014,0.667362,0.996158,1.003044,0.052632
7,67792,61,67496,502,0.992617,0.999101,0.501094,0.999101,0.498906,0.667438,0.995856,1.003259,0.057143
8,67789,64,67484,514,0.992441,0.999057,0.501127,0.999057,0.498873,0.667458,0.995745,1.003326,0.057692
9,67787,66,67463,535,0.992132,0.999027,0.501198,0.999027,0.498802,0.667514,0.995576,1.003467,0.060606
10,67781,72,67440,558,0.991794,0.998939,0.501261,0.998939,0.498739,0.66755,0.995363,1.003593,0.0625
11,67765,88,67365,633,0.990691,0.998703,0.50148,0.998703,0.49852,0.667691,0.994693,1.004032,0.066667
12,67756,97,67334,664,0.990235,0.99857,0.501562,0.99857,0.498438,0.667734,0.994398,1.004196,0.069767
13,67752,101,67289,709,0.989573,0.998511,0.501714,0.998511,0.498286,0.667856,0.994038,1.004501,0.071429
14,67749,104,67280,718,0.989441,0.998467,0.501737,0.998467,0.498263,0.667866,0.993949,1.004546,0.073171
15,67742,111,67268,730,0.989264,0.998364,0.501755,0.998364,0.498245,0.66786,0.993809,1.004583,0.075472
16,67736,117,67252,746,0.989029,0.998276,0.501793,0.998276,0.498207,0.667873,0.993647,1.004658,0.076923
17,67721,132,67225,773,0.988632,0.998055,0.501838,0.998055,0.498162,0.667863,0.993338,1.004748,0.081081
18,67719,134,67209,789,0.988397,0.998025,0.50189,0.998025,0.49811,0.667903,0.993206,1.004852,0.081633
19,67713,140,67189,809,0.988103,0.997937,0.501942,0.997937,0.498058,0.667929,0.993014,1.004957,0.083333
20,67709,144,67160,838,0.987676,0.997878,0.502035,0.997878,0.497965,0.667999,0.992771,1.005143,0.085106
21,67703,150,67143,855,0.987426,0.997789,0.502076,0.997789,0.497924,0.668015,0.992602,1.005226,0.085714
22,67697,156,67113,885,0.986985,0.997701,0.502166,0.997701,0.497834,0.668075,0.992337,1.005405,0.089552
23,67694,159,67094,904,0.986705,0.997657,0.502226,0.997657,0.497774,0.668118,0.992175,1.005525,0.090909
24,67682,171,67044,954,0.98597,0.99748,0.502368,0.99748,0.497632,0.668204,0.991719,1.005809,0.093023
25,67681,172,67018,980,0.985588,0.997465,0.502461,0.997465,0.497539,0.668283,0.99152,1.005996,0.096774
26,67677,176,66999,999,0.985308,0.997406,0.502517,0.997406,0.497483,0.668319,0.991351,1.006108,0.097561
27,67676,177,66981,1017,0.985044,0.997391,0.502581,0.997391,0.497419,0.668372,0.991211,1.006235,0.098039
28,67671,182,66957,1041,0.984691,0.997318,0.502652,0.997318,0.497348,0.668418,0.990997,1.006378,0.1
29,67669,184,66944,1054,0.9845,0.997288,0.502693,0.997288,0.497307,0.668448,0.990887,1.00646,0.102564
30,67667,186,66924,1074,0.984205,0.997259,0.50276,0.997259,0.49724,0.668501,0.990725,1.006595,0.103448
31,67661,192,66872,1126,0.983441,0.99717,0.502932,0.99717,0.497068,0.668633,0.990298,1.006939,0.107143
32,67656,197,66847,1151,0.983073,0.997097,0.503007,0.997097,0.496993,0.668683,0.990077,1.00709,0.108108
33,67655,198,66817,1181,0.982632,0.997082,0.503116,0.997082,0.496884,0.668775,0.989849,1.007307,0.109091
34,67651,202,66791,1207,0.982249,0.997023,0.503198,0.997023,0.496802,0.668835,0.989628,1.007472,0.111111
35,67646,207,66774,1224,0.981999,0.996949,0.503244,0.996949,0.496756,0.668858,0.989466,1.007563,0.113208
36,67642,211,66751,1247,0.981661,0.99689,0.503315,0.99689,0.496685,0.668908,0.989268,1.007705,0.113636
37,67632,221,66714,1284,0.981117,0.996743,0.503417,0.996743,0.496583,0.668965,0.988922,1.007909,0.114286
38,67626,227,66700,1298,0.980911,0.996655,0.503447,0.996655,0.496553,0.668972,0.988774,1.00797,0.116279
39,67616,237,66678,1320,0.980588,0.996507,0.503492,0.996507,0.496508,0.668979,0.988539,1.008061,0.117647
40,67603,250,66603,1395,0.979485,0.996316,0.503726,0.996316,0.496274,0.669141,0.987891,1.008528,0.12
41,67599,254,66587,1411,0.979249,0.996257,0.503771,0.996257,0.496229,0.669168,0.987744,1.008618,0.121212
42,67595,258,66569,1429,0.978985,0.996198,0.503824,0.996198,0.496176,0.669201,0.987582,1.008724,0.121622
43,67589,264,66539,1459,0.978543,0.996109,0.503914,0.996109,0.496086,0.669261,0.987317,1.008905,0.123077
44,67582,271,66521,1477,0.978279,0.996006,0.503956,0.996006,0.496044,0.669274,0.987133,1.008989,0.125
45,67564,289,66481,1517,0.977691,0.995741,0.50404,0.995741,0.49596,0.669288,0.986706,1.009156,0.129032
46,67556,297,66424,1574,0.976852,0.995623,0.504225,0.995623,0.495775,0.669425,0.986228,1.009527,0.129412
47,67537,316,66393,1605,0.976396,0.995343,0.504271,0.995343,0.495729,0.669402,0.98586,1.009619,0.131148
48,67523,330,66344,1654,0.975676,0.995137,0.504404,0.995137,0.495596,0.669473,0.985396,1.009885,0.131579
49,67518,335,66332,1666,0.975499,0.995063,0.50443,0.995063,0.49557,0.669479,0.985271,1.009939,0.132075
50,67515,338,66308,1690,0.975146,0.995019,0.50451,0.995019,0.49549,0.669539,0.985072,1.010097,0.133333
51,67496,357,66252,1746,0.974323,0.994739,0.504651,0.994739,0.495349,0.6696,0.98452,1.010379,0.135135
52,67491,362,66236,1762,0.974087,0.994665,0.504692,0.994665,0.495308,0.66962,0.984365,1.010463,0.136986
53,67481,372,66209,1789,0.97369,0.994518,0.504757,0.994518,0.495243,0.669644,0.984093,1.010593,0.139535
54,67477,376,66181,1817,0.973279,0.994459,0.504848,0.994459,0.495152,0.66971,0.983857,1.010775,0.14
55,67469,384,66164,1834,0.973029,0.994341,0.504883,0.994341,0.495117,0.669714,0.983673,1.010844,0.141026
56,67465,388,66121,1877,0.972396,0.994282,0.50503,0.994282,0.49497,0.669831,0.983327,1.01114,0.142857
57,67416,437,66019,1979,0.970896,0.99356,0.505235,0.99356,0.494765,0.669846,0.982216,1.011549,0.145833
58,67405,448,65971,2027,0.97019,0.993397,0.505376,0.993397,0.494624,0.669933,0.981782,1.011832,0.146341
59,67401,452,65946,2052,0.969823,0.993339,0.505456,0.993339,0.494544,0.66999,0.981568,1.011992,0.147059
60,67396,457,65930,2068,0.969587,0.993265,0.505498,0.993265,0.494502,0.67001,0.981413,1.012076,0.147727
61,67389,464,65890,2108,0.968999,0.993162,0.505624,0.993162,0.494376,0.670097,0.981067,1.012328,0.148148
62,67376,477,65860,2138,0.968558,0.99297,0.505689,0.99297,0.494311,0.670111,0.980751,1.012459,0.148936
63,67368,485,65845,2153,0.968337,0.992852,0.505716,0.992852,0.494284,0.670108,0.980582,1.012514,0.15
64,67364,489,65829,2169,0.968102,0.992793,0.505762,0.992793,0.494238,0.670135,0.980434,1.012605,0.150685
65,67355,498,65806,2192,0.967764,0.992661,0.505816,0.992661,0.494184,0.670152,0.980199,1.012713,0.151515
66,67336,517,65760,2238,0.967087,0.992381,0.505921,0.992381,0.494079,0.67018,0.97972,1.012922,0.152542
67,67319,534,65718,2280,0.96647,0.99213,0.506017,0.99213,0.493983,0.670208,0.979286,1.013116,0.153846
68,67308,545,65667,2331,0.96572,0.991968,0.50617,0.991968,0.49383,0.670305,0.97883,1.013422,0.15493
69,67304,549,65637,2361,0.965278,0.991909,0.50627,0.991909,0.49373,0.670379,0.978579,1.013621,0.155172
70,67293,560,65611,2387,0.964896,0.991747,0.506328,0.991747,0.493672,0.670393,0.978307,1.013738,0.155556
71,67285,568,65594,2404,0.964646,0.991629,0.506363,0.991629,0.493637,0.670396,0.978123,1.013808,0.155963
72,67277,576,65551,2447,0.964014,0.991511,0.506497,0.991511,0.493503,0.670487,0.977748,1.014077,0.15625
73,67260,593,65496,2502,0.963205,0.991261,0.506644,0.991261,0.493356,0.670558,0.977218,1.01437,0.156863
74,67258,595,65479,2519,0.962955,0.991231,0.506701,0.991231,0.493299,0.670602,0.977078,1.014485,0.157895
75,67254,599,65466,2532,0.962764,0.991172,0.506736,0.991172,0.493264,0.670619,0.976953,1.014555,0.16092
76,67239,614,65429,2569,0.962219,0.990951,0.506822,0.990951,0.493178,0.670643,0.97657,1.014726,0.16129
77,67230,623,65409,2589,0.961925,0.990818,0.506864,0.990818,0.493136,0.67065,0.976356,1.014812,0.161765
78,67211,642,65386,2612,0.961587,0.990538,0.506882,0.990538,0.493118,0.670601,0.976047,1.014847,0.162162
79,67195,658,65335,2663,0.960837,0.990303,0.507017,0.990303,0.492983,0.670666,0.975554,1.015118,0.163265
80,67186,667,65302,2696,0.960352,0.99017,0.50711,0.99017,0.49289,0.670716,0.975245,1.015304,0.163934
81,67181,672,65268,2730,0.959852,0.990096,0.507222,0.990096,0.492778,0.670797,0.974958,1.015527,0.164179
82,67172,681,65244,2754,0.959499,0.989964,0.50728,0.989964,0.49272,0.670818,0.974715,1.015644,0.164706
83,67161,692,65215,2783,0.959072,0.989801,0.50735,0.989801,0.49265,0.670842,0.974421,1.015785,0.166667
84,67115,738,65145,2853,0.958043,0.989124,0.507447,0.989124,0.492553,0.670771,0.973567,1.015979,0.168831
85,67108,745,65119,2879,0.957661,0.98902,0.507521,0.98902,0.492479,0.670812,0.973324,1.016127,0.169492
86,67098,755,65098,2900,0.957352,0.988873,0.507565,0.988873,0.492435,0.670816,0.973096,1.016214,0.171429
87,67087,766,65065,2933,0.956866,0.988711,0.50765,0.988711,0.49235,0.670853,0.972772,1.016385,0.172414
88,67082,771,65038,2960,0.956469,0.988637,0.507735,0.988637,0.492265,0.670911,0.972536,1.016556,0.17284
89,67071,782,65005,2993,0.955984,0.988475,0.507821,0.988475,0.492179,0.670948,0.972212,1.016728,0.173077
90,67067,786,64987,3011,0.955719,0.988416,0.507876,0.988416,0.492124,0.670982,0.97205,1.016836,0.175
91,67051,802,64963,3035,0.955366,0.98818,0.507908,0.98818,0.492092,0.670956,0.971756,1.016902,0.177778
92,67044,809,64950,3048,0.955175,0.988077,0.507932,0.988077,0.492068,0.670953,0.971609,1.01695,0.178082
93,67032,821,64920,3078,0.954734,0.9879,0.508003,0.9879,0.491997,0.670974,0.971299,1.017091,0.178571
94,67024,829,64866,3132,0.95394,0.987782,0.508181,0.987782,0.491819,0.671102,0.970843,1.017448,0.179104
95,67016,837,64846,3152,0.953646,0.987665,0.508228,0.987665,0.491772,0.671116,0.970637,1.017543,0.179487
96,67005,848,64817,3181,0.953219,0.987502,0.508299,0.987502,0.491701,0.671141,0.970343,1.017684,0.180556
97,66998,855,64791,3207,0.952837,0.987399,0.508373,0.987399,0.491627,0.671181,0.9701,1.017833,0.180952
98,66987,866,64747,3251,0.95219,0.987237,0.508502,0.987237,0.491498,0.671256,0.969695,1.018091,0.181818
99,66958,895,64670,3328,0.951057,0.98681,0.508691,0.98681,0.491309,0.671322,0.968914,1.018469,0.183333
100,66945,908,64649,3349,0.950749,0.986618,0.508724,0.986618,0.491276,0.671306,0.968664,1.018535,0.183544
101,66914,939,64578,3420,0.949704,0.986161,0.508883,0.986161,0.491117,0.671339,0.967913,1.018853,0.183673
102,66908,945,64558,3440,0.94941,0.986073,0.508938,0.986073,0.491062,0.671366,0.967722,1.018963,0.184211
103,66894,959,64521,3477,0.948866,0.985867,0.509029,0.985867,0.490971,0.671397,0.967347,1.019145,0.185185
104,66879,974,64469,3529,0.948101,0.985645,0.509174,0.985645,0.490826,0.671473,0.966853,1.019436,0.186047
105,66870,983,64434,3564,0.947587,0.985513,0.509276,0.985513,0.490724,0.671531,0.96653,1.019641,0.1875
106,66842,1011,64371,3627,0.94666,0.9851,0.509416,0.9851,0.490584,0.671556,0.96586,1.019921,0.188679
107,66817,1036,64315,3683,0.945837,0.984732,0.50954,0.984732,0.49046,0.671578,0.965263,1.020169,0.189189
108,66806,1047,64280,3718,0.945322,0.98457,0.509635,0.98457,0.490365,0.671623,0.964925,1.020359,0.189655
109,66790,1063,64235,3763,0.94466,0.984334,0.50975,0.984334,0.49025,0.671668,0.964476,1.020589,0.190476
110,66761,1092,64208,3790,0.944263,0.983906,0.509747,0.983906,0.490253,0.671566,0.964064,1.020582,0.191489
111,66754,1099,64188,3810,0.943969,0.983803,0.509798,0.983803,0.490202,0.671586,0.963865,1.020686,0.192982
112,66750,1103,64164,3834,0.943616,0.983744,0.509877,0.983744,0.490123,0.671641,0.963659,1.020843,0.193182
113,66737,1116,64130,3868,0.943116,0.983553,0.50996,0.983553,0.49004,0.671669,0.963313,1.021011,0.193548
114,66724,1129,64102,3896,0.942704,0.983361,0.510021,0.983361,0.489979,0.671676,0.963011,1.021132,0.194444
115,66698,1155,64035,3963,0.941719,0.982978,0.510185,0.982978,0.489815,0.671729,0.962326,1.02146,0.194805
116,66693,1160,64002,3996,0.941234,0.982904,0.510295,0.982904,0.489705,0.671807,0.962047,1.02168,0.195266
117,66651,1202,63938,4060,0.940292,0.982285,0.510388,0.982285,0.489612,0.671743,0.961266,1.021866,0.195652
118,66641,1212,63883,4115,0.939484,0.982138,0.510565,0.982138,0.489435,0.671862,0.960788,1.022221,0.196078
119,66601,1252,63799,4199,0.938248,0.981548,0.510744,0.981548,0.489256,0.671879,0.959875,1.022579,0.196262
120,66592,1261,63765,4233,0.937748,0.981416,0.510843,0.981416,0.489157,0.671934,0.959559,1.022778,0.197674
121,66574,1279,63734,4264,0.937292,0.98115,0.510897,0.98115,0.489103,0.671918,0.959198,1.022886,0.2
122,66435,1418,63398,4600,0.932351,0.979102,0.511696,0.979102,0.488304,0.672127,0.955701,1.024485,0.201613
123,66420,1433,63347,4651,0.931601,0.978881,0.51184,0.978881,0.48816,0.672199,0.955216,1.024775,0.201835
124,66407,1446,63299,4699,0.930895,0.978689,0.511981,0.978689,0.488019,0.672275,0.954767,1.025056,0.202247
125,66390,1463,63267,4731,0.930424,0.978439,0.512043,0.978439,0.487957,0.67227,0.954406,1.025181,0.203125
126,66383,1470,63248,4750,0.930145,0.978336,0.512092,0.978336,0.487908,0.672287,0.954215,1.025278,0.203279
127,66345,1508,63146,4852,0.928645,0.977775,0.512352,0.977775,0.487648,0.672379,0.953184,1.025799,0.204545
128,66333,1520,63111,4887,0.92813,0.977599,0.512446,0.977599,0.487554,0.672418,0.952838,1.025986,0.205021
129,66307,1546,63036,4962,0.927027,0.977215,0.512645,0.977215,0.487355,0.672498,0.952095,1.026385,0.205128
130,66293,1560,62981,5017,0.926218,0.977009,0.51281,0.977009,0.48719,0.672592,0.951587,1.026716,0.205479
131,66288,1565,62959,5039,0.925895,0.976935,0.512878,0.976935,0.487122,0.672633,0.951388,1.026853,0.205882
132,66276,1577,62942,5056,0.925645,0.976759,0.512901,0.976759,0.487099,0.67261,0.951174,1.026897,0.206349
133,66245,1608,62881,5117,0.924748,0.976302,0.513026,0.976302,0.486974,0.67261,0.950497,1.027148,0.206897
134,66236,1617,62874,5124,0.924645,0.976169,0.51302,0.976169,0.48698,0.672573,0.950379,1.027136,0.207317
135,66223,1630,62847,5151,0.924248,0.975977,0.513078,0.975977,0.486922,0.672578,0.950085,1.027253,0.207547
136,66183,1670,62732,5266,0.922557,0.975388,0.513385,0.975388,0.486615,0.672701,0.948944,1.027867,0.208333
137,66173,1680,62693,5305,0.921983,0.975241,0.513502,0.975241,0.486498,0.672767,0.948583,1.028102,0.208955
138,66156,1697,62644,5354,0.921262,0.97499,0.513634,0.97499,0.486366,0.67282,0.948098,1.028365,0.20915
139,66141,1712,62579,5419,0.920306,0.974769,0.513836,0.974769,0.486164,0.672941,0.947509,1.028771,0.209677
140,66134,1719,62553,5445,0.919924,0.974666,0.513914,0.974666,0.486086,0.672983,0.947266,1.028925,0.210526
141,66119,1734,62523,5475,0.919483,0.974445,0.513977,0.974445,0.486023,0.672984,0.946935,1.029052,0.211538
142,66110,1743,62514,5484,0.919351,0.974312,0.513979,0.974312,0.486021,0.672954,0.946802,1.029056,0.212121
143,66089,1764,62482,5516,0.91888,0.974003,0.514027,0.974003,0.485973,0.672922,0.946412,1.029153,0.213115
144,66077,1776,62465,5533,0.91863,0.973826,0.51405,0.973826,0.48595,0.672899,0.946198,1.029198,0.214286
145,66054,1799,62428,5570,0.918086,0.973487,0.514111,0.973487,0.485889,0.67287,0.945757,1.02932,0.215385
146,66037,1816,62370,5628,0.917233,0.973236,0.514279,0.973236,0.485721,0.672954,0.945205,1.029657,0.21547
147,66011,1842,62292,5706,0.916086,0.972853,0.514493,0.972853,0.485507,0.673046,0.944439,1.030086,0.215686
148,66007,1846,62272,5726,0.915792,0.972794,0.514558,0.972794,0.485442,0.673088,0.944262,1.030216,0.216216
149,65995,1858,62261,5737,0.91563,0.972617,0.514557,0.972617,0.485443,0.673044,0.944093,1.030213,0.217391
150,65965,1888,62181,5817,0.914453,0.972175,0.514764,0.972175,0.485236,0.673116,0.943283,1.030629,0.217687
151,65942,1911,62126,5872,0.913645,0.971836,0.514898,0.971836,0.485102,0.673149,0.942709,1.030897,0.21875
152,65872,1981,61991,6007,0.911659,0.970805,0.515176,0.970805,0.484824,0.673139,0.9412,1.031454,0.219298
153,65856,1997,61950,6048,0.911056,0.970569,0.515281,0.970569,0.484719,0.673171,0.940781,1.031663,0.219512
154,65828,2025,61906,6092,0.910409,0.970156,0.515352,0.970156,0.484648,0.673133,0.940251,1.031806,0.22
155,65817,2036,61889,6109,0.910159,0.969994,0.515379,0.969994,0.484621,0.673117,0.940045,1.031859,0.220339
156,65798,2055,61846,6152,0.909527,0.969714,0.515481,0.969714,0.484519,0.673136,0.939588,1.032063,0.220779
157,65791,2062,61816,6182,0.909086,0.969611,0.515575,0.969611,0.484425,0.673191,0.939316,1.032252,0.22093
158,65770,2083,61783,6215,0.9086,0.969301,0.515629,0.969301,0.484371,0.673163,0.938918,1.032359,0.222222
159,65741,2112,61706,6292,0.907468,0.968874,0.51583,0.968874,0.48417,0.673231,0.938138,1.032763,0.224138
160,65735,2118,61676,6322,0.907027,0.968785,0.515929,0.968785,0.484071,0.673294,0.937873,1.03296,0.22449
161,65731,2122,61654,6344,0.906703,0.968727,0.516003,0.968727,0.483997,0.673342,0.937682,1.033108,0.225
162,65670,2183,61490,6508,0.904291,0.967828,0.516436,0.967828,0.483564,0.673494,0.936025,1.033976,0.225806
163,65658,2195,61446,6552,0.903644,0.967651,0.516569,0.967651,0.483431,0.673564,0.935613,1.034242,0.226087
164,65635,2218,61359,6639,0.902365,0.967312,0.516835,0.967312,0.483165,0.673708,0.934804,1.034775,0.226415
165,65632,2221,61342,6656,0.902115,0.967267,0.516893,0.967267,0.483107,0.673746,0.934656,1.034891,0.226804
166,65619,2234,61302,6696,0.901527,0.967076,0.517007,0.967076,0.482993,0.673796,0.934266,1.035118,0.227723
167,65602,2251,61245,6753,0.900688,0.966825,0.517174,0.966825,0.482826,0.673878,0.933722,1.035454,0.228426
168,65566,2287,61192,6806,0.899909,0.966295,0.517253,0.966295,0.482747,0.673816,0.933066,1.035612,0.228571
169,65557,2296,61156,6842,0.899379,0.966162,0.517366,0.966162,0.482634,0.673879,0.932735,1.035838,0.22963
170,65543,2310,61120,6878,0.89885,0.965956,0.51746,0.965956,0.48254,0.673909,0.932367,1.036025,0.230159
171,65532,2321,61088,6910,0.898379,0.965794,0.517549,0.965794,0.482451,0.673944,0.932051,1.036203,0.230769
172,65474,2379,60976,7022,0.896732,0.964939,0.517786,0.964939,0.482214,0.673937,0.930799,1.036678,0.231884
173,65443,2410,60919,7079,0.895894,0.964482,0.517901,0.964482,0.482099,0.673923,0.930151,1.036909,0.232143
174,65436,2417,60897,7101,0.89557,0.964379,0.517964,0.964379,0.482036,0.673952,0.929938,1.037036,0.232558
175,65406,2447,60846,7152,0.89482,0.963937,0.518059,0.963937,0.481941,0.673924,0.929342,1.037225,0.233333
176,65385,2468,60822,7176,0.894467,0.963627,0.518077,0.963627,0.481923,0.673864,0.92901,1.037262,0.233766
177,65373,2480,60801,7197,0.894159,0.96345,0.518118,0.96345,0.481882,0.673855,0.928768,1.037343,0.234043
178,65349,2504,60775,7223,0.893776,0.963097,0.518133,0.963097,0.481867,0.673781,0.928399,1.037373,0.234375
179,65329,2524,60728,7270,0.893085,0.962802,0.51825,0.962802,0.48175,0.673807,0.927906,1.037607,0.234568
180,65313,2540,60700,7298,0.892673,0.962566,0.518304,0.962566,0.481696,0.673795,0.927582,1.037715,0.235294
181,65280,2573,60662,7336,0.892114,0.96208,0.518334,0.96208,0.481666,0.673702,0.92706,1.037775,0.236364
182,65266,2587,60621,7377,0.891512,0.961873,0.518449,0.961873,0.481551,0.673748,0.926655,1.038006,0.236842
183,65259,2594,60604,7394,0.891262,0.96177,0.518492,0.96177,0.481508,0.67376,0.926478,1.038093,0.238095
184,65246,2607,60564,7434,0.890673,0.961579,0.518607,0.961579,0.481393,0.67381,0.926088,1.038323,0.24
185,65232,2621,60518,7480,0.889997,0.961372,0.518744,0.961372,0.481256,0.673874,0.925646,1.038596,0.240506
186,65206,2647,60483,7515,0.889482,0.960989,0.518788,0.960989,0.481212,0.673818,0.925197,1.038686,0.240964
187,65196,2657,60456,7542,0.889085,0.960842,0.518862,0.960842,0.481138,0.673843,0.924925,1.038832,0.241379
188,65185,2668,60430,7568,0.888703,0.96068,0.518927,0.96068,0.481073,0.673858,0.924653,1.038963,0.241935
189,65161,2692,60359,7639,0.887658,0.960326,0.519128,0.960326,0.480872,0.673941,0.923953,1.039366,0.242188
190,65137,2716,60316,7682,0.887026,0.959972,0.519214,0.959972,0.480786,0.673926,0.92346,1.039538,0.242424
191,65135,2718,60301,7697,0.886805,0.959943,0.519269,0.959943,0.480731,0.673965,0.923335,1.039647,0.242991
192,65116,2737,60262,7736,0.886232,0.959663,0.519357,0.959663,0.480643,0.673971,0.922908,1.039825,0.243243
193,65043,2810,60112,7886,0.884026,0.958587,0.5197,0.958587,0.4803,0.673993,0.921267,1.04051,0.243697
194,64996,2857,60035,7963,0.882894,0.957894,0.519839,0.957894,0.480161,0.673939,0.920354,1.040789,0.243902
195,64981,2872,60002,7996,0.882408,0.957673,0.519919,0.957673,0.480081,0.673951,0.920001,1.040948,0.244444
196,64959,2894,59949,8049,0.881629,0.957349,0.520055,0.957349,0.479945,0.673985,0.919449,1.041221,0.244898
197,64945,2908,59890,8108,0.880761,0.957143,0.520247,0.957143,0.479753,0.674095,0.918911,1.041605,0.245763
198,64919,2934,59864,8134,0.880379,0.956759,0.520255,0.956759,0.479745,0.674007,0.918528,1.041622,0.246154
199,64910,2943,59848,8150,0.880144,0.956627,0.520287,0.956627,0.479713,0.674001,0.918344,1.041686,0.247312
200,64888,2965,59816,8182,0.879673,0.956303,0.520336,0.956303,0.479664,0.673961,0.917947,1.041784,0.25
201,64611,3242,59275,8723,0.871717,0.95222,0.521536,0.95222,0.478464,0.673947,0.911926,1.044186,0.252252
202,64594,3259,59228,8770,0.871026,0.95197,0.521668,0.95197,0.478332,0.673995,0.911454,1.044451,0.252525
203,64574,3279,59192,8806,0.870496,0.951675,0.521743,0.951675,0.478257,0.673983,0.911042,1.0446,0.253731
204,64564,3289,59165,8833,0.870099,0.951528,0.521818,0.951528,0.478182,0.674009,0.91077,1.044751,0.254237
205,64554,3299,59144,8854,0.86979,0.95138,0.521868,0.95138,0.478132,0.674014,0.910542,1.044851,0.254545
206,64526,3327,59098,8900,0.869114,0.950968,0.521954,0.950968,0.478046,0.673982,0.909997,1.045023,0.254902
207,64493,3360,59010,8988,0.86782,0.950481,0.522198,0.950481,0.477802,0.674063,0.909106,1.045512,0.255319
208,64472,3381,58980,9018,0.867378,0.950172,0.522243,0.950172,0.477757,0.674023,0.908731,1.045603,0.255556
209,64450,3403,58942,9056,0.86682,0.949847,0.522319,0.949847,0.477681,0.674005,0.908289,1.045754,0.255814
210,64417,3436,58902,9096,0.866231,0.949361,0.522361,0.949361,0.477639,0.673917,0.907752,1.045838,0.25641
211,64372,3481,58826,9172,0.865114,0.948698,0.522508,0.948698,0.477492,0.673872,0.906861,1.046134,0.256757
212,64328,3525,58717,9281,0.863511,0.948049,0.522801,0.948049,0.477199,0.673952,0.905735,1.046718,0.257426
213,64304,3549,58675,9323,0.862893,0.947696,0.522886,0.947696,0.477114,0.673933,0.905249,1.046889,0.258065
214,64285,3568,58656,9342,0.862614,0.947416,0.522893,0.947416,0.477107,0.673868,0.904969,1.046904,0.259259
215,64238,3615,58585,9413,0.861569,0.946723,0.523013,0.946723,0.476987,0.673792,0.904101,1.047143,0.259542
216,64213,3640,58537,9461,0.860864,0.946355,0.52312,0.946355,0.47688,0.673788,0.903563,1.047358,0.26
217,64172,3681,58448,9550,0.859555,0.94575,0.52334,0.94575,0.47666,0.673817,0.902607,1.047799,0.260417
218,64097,3756,58324,9674,0.857731,0.944645,0.523578,0.944645,0.476422,0.673734,0.901142,1.048276,0.26087
219,64054,3799,58225,9773,0.856275,0.944011,0.523835,0.944011,0.476165,0.673785,0.900096,1.048789,0.261682
220,64042,3811,58194,9804,0.855819,0.943834,0.523921,0.943834,0.476079,0.673811,0.89978,1.048961,0.261905
221,64027,3826,58119,9879,0.854716,0.943613,0.524184,0.943613,0.475816,0.673972,0.899117,1.049489,0.263158
222,63955,3898,57996,10002,0.852907,0.942552,0.524432,0.942552,0.475568,0.673906,0.897682,1.049985,0.263889
223,63944,3909,57969,10029,0.85251,0.94239,0.524505,0.94239,0.475495,0.673925,0.897402,1.050131,0.264151
224,63933,3920,57955,10043,0.852304,0.942228,0.524523,0.942228,0.475477,0.673898,0.897218,1.050166,0.264706
225,63903,3950,57900,10098,0.851496,0.941786,0.524642,0.941786,0.475358,0.673883,0.896593,1.050406,0.265306
226,63889,3964,57863,10135,0.850951,0.94158,0.524747,0.94158,0.475253,0.673917,0.896217,1.050615,0.266187
227,63881,3972,57825,10173,0.850393,0.941462,0.52488,0.941462,0.47512,0.673996,0.895879,1.050881,0.266667
228,63808,4045,57720,10278,0.848848,0.940386,0.525048,0.940386,0.474952,0.673859,0.894568,1.051217,0.267857
229,63803,4050,57701,10297,0.848569,0.940312,0.52511,0.940312,0.47489,0.673891,0.894392,1.051343,0.268116
230,63785,4068,57637,10361,0.847628,0.940047,0.525317,0.940047,0.474683,0.673993,0.893788,1.051756,0.268293
231,63713,4140,57547,10451,0.846304,0.938986,0.525425,0.938986,0.474575,0.673809,0.892596,1.051972,0.269231
232,63705,4148,57541,10457,0.846216,0.938868,0.525419,0.938868,0.474581,0.673774,0.892493,1.051962,0.27027
233,63677,4176,57487,10511,0.845422,0.938455,0.525544,0.938455,0.474456,0.67377,0.891889,1.052211,0.270588
234,63663,4190,57452,10546,0.844907,0.938249,0.525641,0.938249,0.474359,0.673797,0.891528,1.052405,0.270833
235,63656,4197,57427,10571,0.84454,0.938146,0.525722,0.938146,0.474278,0.673837,0.891293,1.052568,0.271186
236,63647,4206,57410,10588,0.84429,0.938013,0.525761,0.938013,0.474239,0.673834,0.891101,1.052645,0.272189
237,63603,4250,57358,10640,0.843525,0.937365,0.525814,0.937365,0.474186,0.673711,0.890395,1.052752,0.272727
238,63470,4383,57188,10810,0.841025,0.935404,0.526032,0.935404,0.473968,0.673382,0.888164,1.053189,0.273224
239,63399,4454,57072,10926,0.839319,0.934358,0.526259,0.934358,0.473741,0.673297,0.886788,1.053643,0.273684
240,63390,4463,57046,10952,0.838936,0.934225,0.526338,0.934225,0.473662,0.673327,0.88653,1.0538,0.273973
241,63380,4473,57014,10984,0.838466,0.934078,0.526438,0.934078,0.473562,0.673371,0.886221,1.054001,0.27451
242,63362,4491,56965,11033,0.837745,0.933813,0.526582,0.933813,0.473418,0.673419,0.885728,1.054289,0.275
243,63358,4495,56954,11044,0.837583,0.933754,0.526614,0.933754,0.473386,0.67343,0.885617,1.054354,0.275362
244,63349,4504,56937,11061,0.837333,0.933621,0.526653,0.933621,0.473347,0.673428,0.885426,1.054432,0.275591
245,63324,4529,56899,11099,0.836775,0.933253,0.526721,0.933253,0.473279,0.673387,0.884962,1.054568,0.275862
246,63322,4531,56890,11108,0.836642,0.933223,0.526753,0.933223,0.473247,0.673405,0.884881,1.054631,0.276074
247,63292,4561,56828,11170,0.83573,0.932781,0.526906,0.932781,0.473094,0.673416,0.884204,1.054939,0.276316
248,63278,4575,56813,11185,0.83551,0.932575,0.526917,0.932575,0.473083,0.673371,0.883991,1.05496,0.276596
249,63251,4602,56764,11234,0.834789,0.932177,0.527026,0.932177,0.472974,0.673356,0.883431,1.055178,0.277778
250,63226,4627,56711,11287,0.83401,0.931808,0.52716,0.931808,0.47284,0.673369,0.882857,1.055447,0.278689
251,63213,4640,56695,11303,0.833775,0.931617,0.527179,0.931617,0.472821,0.673335,0.882643,1.055485,0.28
252,63186,4667,56629,11369,0.832804,0.931219,0.527363,0.931219,0.472637,0.673381,0.881959,1.055853,0.280488
253,63169,4684,56603,11395,0.832422,0.930968,0.52741,0.930968,0.47259,0.673354,0.881642,1.055948,0.280702
254,63137,4716,56539,11459,0.83148,0.930497,0.527566,0.930497,0.472434,0.673357,0.880936,1.05626,0.28125
255,63096,4757,56472,11526,0.830495,0.929893,0.5277,0.929893,0.4723,0.673308,0.880141,1.056527,0.281818
256,63082,4771,56436,11562,0.829966,0.929686,0.527803,0.929686,0.472197,0.673338,0.879773,1.056735,0.282051
257,63023,4830,56377,11621,0.829098,0.928817,0.527831,0.928817,0.472169,0.673132,0.878904,1.05679,0.282353
258,63007,4846,56353,11645,0.828745,0.928581,0.527874,0.928581,0.472126,0.673105,0.87861,1.056875,0.282609
259,62983,4870,56314,11684,0.828171,0.928227,0.527951,0.928227,0.472049,0.673075,0.878146,1.057031,0.282895
260,62961,4892,56263,11735,0.827421,0.927903,0.52809,0.927903,0.47191,0.673103,0.877609,1.057308,0.283333
261,62948,4905,56241,11757,0.827098,0.927711,0.528136,0.927711,0.471864,0.673089,0.877351,1.057401,0.283688
262,62928,4925,56207,11791,0.826598,0.927417,0.528207,0.927417,0.471793,0.67307,0.876953,1.057544,0.284091
263,62914,4939,56180,11818,0.826201,0.92721,0.528272,0.92721,0.471728,0.673068,0.876652,1.057672,0.284211
264,62896,4957,56158,11840,0.825877,0.926945,0.528298,0.926945,0.471702,0.673019,0.876357,1.057725,0.285088
265,62856,4997,56081,11917,0.824745,0.926356,0.528481,0.926356,0.471519,0.673012,0.875496,1.058092,0.285714
266,62703,5150,55847,12151,0.821304,0.924101,0.528916,0.924101,0.471084,0.672768,0.872647,1.058962,0.287234
267,62675,5178,55804,12194,0.820671,0.923688,0.528997,0.923688,0.471003,0.672724,0.872125,1.059124,0.28777
268,62655,5198,55748,12250,0.819848,0.923393,0.529167,0.923393,0.470833,0.672784,0.871565,1.059465,0.287879
269,62602,5251,55694,12304,0.819054,0.922612,0.529198,0.922612,0.470802,0.672601,0.870778,1.059527,0.288462
270,62582,5271,55653,12345,0.818451,0.922317,0.529302,0.922317,0.470698,0.672607,0.870329,1.059735,0.288889
271,62552,5301,55595,12403,0.817598,0.921875,0.529442,0.921875,0.470558,0.672602,0.869681,1.060016,0.289157
272,62541,5312,55579,12419,0.817362,0.921713,0.52947,0.921713,0.47053,0.672582,0.869482,1.060072,0.289474
273,62520,5333,55538,12460,0.816759,0.921404,0.52957,0.921404,0.47043,0.67258,0.869026,1.060272,0.290323
274,62506,5347,55514,12484,0.816406,0.921197,0.529622,0.921197,0.470378,0.672567,0.868746,1.060376,0.290909
275,62492,5361,55503,12495,0.816245,0.920991,0.529616,0.920991,0.470384,0.672507,0.868562,1.060363,0.291667
276,62476,5377,55482,12516,0.815936,0.920755,0.529646,0.920755,0.470354,0.672468,0.86829,1.060424,0.292135
277,62458,5395,55453,12545,0.815509,0.92049,0.529705,0.92049,0.470295,0.672445,0.867944,1.060541,0.292308
278,62422,5431,55386,12612,0.814524,0.919959,0.529862,0.919959,0.470138,0.67243,0.867185,1.060857,0.292683
279,62414,5439,55366,12632,0.81423,0.919841,0.52992,0.919841,0.47008,0.672445,0.866979,1.060973,0.293103
280,62406,5447,55347,12651,0.81395,0.919724,0.529974,0.919724,0.470026,0.672457,0.866781,1.06108,0.293478
281,62388,5465,55307,12691,0.813362,0.919458,0.530082,0.919458,0.469918,0.672473,0.866354,1.061297,0.294118
282,62291,5562,55140,12858,0.810906,0.918029,0.530448,0.918029,0.469552,0.672384,0.86441,1.062029,0.294872
283,62274,5579,55120,12878,0.810612,0.917778,0.53047,0.917778,0.46953,0.672335,0.864138,1.062074,0.295082
284,62262,5591,55103,12895,0.810362,0.917601,0.530499,0.917601,0.469501,0.67231,0.863924,1.062131,0.295238
285,62222,5631,55013,12985,0.809039,0.917012,0.530746,0.917012,0.469254,0.67235,0.862968,1.062626,0.295455
286,62216,5637,54994,13004,0.808759,0.916923,0.530808,0.916923,0.469192,0.672376,0.862783,1.06275,0.295597
287,62186,5667,54933,13065,0.807862,0.916481,0.530964,0.916481,0.469036,0.672383,0.862114,1.063063,0.295918
288,62175,5678,54887,13111,0.807186,0.916319,0.531129,0.916319,0.468871,0.672471,0.861694,1.063393,0.296296
289,62125,5728,54820,13178,0.8062,0.915582,0.531233,0.915582,0.468767,0.672356,0.860833,1.0636,0.296703
290,62117,5736,54785,13213,0.805685,0.915464,0.53136,0.915464,0.46864,0.672426,0.860516,1.063855,0.296774
291,62097,5756,54722,13276,0.804759,0.91517,0.531566,0.91517,0.468434,0.672511,0.859905,1.064268,0.297297
292,62067,5786,54688,13310,0.804259,0.914727,0.5316,0.914727,0.4684,0.672419,0.859434,1.064337,0.297619
293,62057,5796,54659,13339,0.803832,0.91458,0.531692,0.91458,0.468308,0.672453,0.859147,1.064521,0.29776
294,61940,5913,54404,13594,0.800082,0.912856,0.532387,0.912856,0.467613,0.672541,0.856409,1.065911,0.297872
295,61930,5923,54387,13611,0.799832,0.912708,0.532424,0.912708,0.467576,0.672531,0.85621,1.065986,0.298246
296,61904,5949,54352,13646,0.799318,0.912325,0.53248,0.912325,0.46752,0.672471,0.855761,1.066098,0.298507
297,61870,5983,54306,13692,0.798641,0.911824,0.532554,0.911824,0.467446,0.672394,0.855172,1.066246,0.298701
298,61863,5990,54280,13718,0.798259,0.911721,0.532645,0.911721,0.467355,0.672439,0.854929,1.066428,0.298969
299,61857,5996,54258,13740,0.797935,0.911632,0.532722,0.911632,0.467278,0.672476,0.854723,1.066582,0.3
300,61774,6079,54094,13904,0.795523,0.910409,0.533141,0.910409,0.466859,0.672476,0.852905,1.067422,0.300885
301,61758,6095,54058,13940,0.794994,0.910173,0.533242,0.910173,0.466758,0.672492,0.852522,1.067624,0.301587
302,61747,6106,54042,13956,0.794759,0.910011,0.533272,0.910011,0.466728,0.672471,0.852324,1.067683,0.301887
303,61700,6153,53974,14024,0.793759,0.909319,0.533396,0.909319,0.466604,0.672381,0.851477,1.067931,0.302083
304,61667,6186,53935,14063,0.793185,0.908832,0.533442,0.908832,0.466558,0.672285,0.850947,1.068025,0.302326
305,61584,6269,53799,14199,0.791185,0.907609,0.533735,0.907609,0.466265,0.672182,0.849335,1.068612,0.30303
306,61544,6309,53725,14273,0.790097,0.90702,0.533916,0.90702,0.466084,0.672164,0.848496,1.068974,0.303571
307,61536,6317,53709,14289,0.789861,0.906902,0.533958,0.906902,0.466042,0.672165,0.848319,1.069057,0.304348
308,61491,6362,53641,14357,0.788861,0.906238,0.534091,0.906238,0.465909,0.672088,0.847487,1.069324,0.304762
309,61465,6388,53610,14388,0.788406,0.905855,0.53413,0.905855,0.46587,0.672013,0.847068,1.069401,0.304878
310,61450,6403,53577,14421,0.78792,0.905634,0.534222,0.905634,0.465778,0.672025,0.846714,1.069586,0.305085
311,61407,6446,53538,14460,0.787347,0.905001,0.534229,0.905001,0.465771,0.671856,0.846111,1.0696,0.305141
312,61321,6532,53329,14669,0.784273,0.903733,0.534854,0.903733,0.465146,0.672,0.843939,1.070851,0.305556
313,61282,6571,53250,14748,0.783111,0.903158,0.535064,0.903158,0.464936,0.672007,0.843071,1.071272,0.305785
314,61264,6589,53214,14784,0.782582,0.902893,0.53516,0.902893,0.46484,0.672009,0.842673,1.071463,0.305882
315,61249,6604,53190,14808,0.782229,0.902672,0.535211,0.902672,0.464789,0.671988,0.842386,1.071566,0.306452
316,61212,6641,53146,14852,0.781582,0.902127,0.535266,0.902127,0.464734,0.67188,0.84179,1.071677,0.307692
317,61169,6684,53102,14896,0.780935,0.901493,0.535298,0.901493,0.464702,0.671729,0.841149,1.071739,0.308642
318,61139,6714,53083,14915,0.780655,0.901051,0.535265,0.901051,0.464735,0.67158,0.840789,1.071673,0.309091
319,61134,6719,53064,14934,0.780376,0.900977,0.535333,0.900977,0.464667,0.671614,0.840612,1.071811,0.309524
320,61104,6749,53028,14970,0.779846,0.900535,0.53538,0.900535,0.46462,0.671528,0.840126,1.071904,0.309859
321,61078,6775,52976,15022,0.779082,0.900152,0.535518,0.900152,0.464482,0.67153,0.839552,1.072181,0.311111
322,61034,6819,52924,15074,0.778317,0.899503,0.535583,0.899503,0.464417,0.671401,0.838845,1.072311,0.311688
323,61018,6835,52892,15106,0.777846,0.899268,0.535669,0.899268,0.464331,0.671402,0.838492,1.072482,0.3125
324,60906,6947,52738,15260,0.775582,0.897617,0.535937,0.897617,0.464063,0.671152,0.836534,1.073019,0.313433
325,60878,6975,52685,15313,0.774802,0.897204,0.536072,0.897204,0.463928,0.671143,0.835938,1.073291,0.314286
326,60842,7011,52647,15351,0.774243,0.896674,0.536105,0.896674,0.463895,0.671019,0.835393,1.073355,0.314815
327,60809,7044,52597,15401,0.773508,0.896187,0.536206,0.896187,0.463794,0.670963,0.834782,1.073558,0.315068
328,60794,7059,52568,15430,0.773082,0.895966,0.536282,0.895966,0.463718,0.67096,0.834458,1.07371,0.315789
329,60717,7136,52462,15536,0.771523,0.894831,0.536469,0.894831,0.463531,0.670787,0.833111,1.074084,0.317073
330,60680,7173,52399,15599,0.770596,0.894286,0.536616,0.894286,0.463384,0.670749,0.832375,1.074379,0.31746
331,60664,7189,52367,15631,0.770126,0.89405,0.536702,0.89405,0.463298,0.67075,0.832022,1.074552,0.317757
332,60651,7202,52341,15657,0.769743,0.893859,0.536773,0.893859,0.463227,0.670751,0.831735,1.074692,0.318182
333,60620,7233,52294,15704,0.769052,0.893402,0.536869,0.893402,0.463131,0.670698,0.831161,1.074885,0.318584
334,60575,7278,52239,15759,0.768243,0.892739,0.536946,0.892739,0.463054,0.670571,0.830425,1.075039,0.318841
335,60562,7291,52216,15782,0.767905,0.892547,0.537002,0.892547,0.462998,0.67056,0.83016,1.075151,0.319149
336,60532,7321,52172,15826,0.767258,0.892105,0.537088,0.892105,0.462912,0.670503,0.829615,1.075324,0.319588
337,60515,7338,52145,15853,0.766861,0.891854,0.537147,0.891854,0.462853,0.670478,0.829291,1.075442,0.32
338,60467,7386,52107,15891,0.766302,0.891147,0.537131,0.891147,0.462869,0.670266,0.828658,1.07541,0.320755
339,60435,7418,52065,15933,0.765684,0.890675,0.5372,0.890675,0.4628,0.670186,0.828113,1.075548,0.320988
340,60416,7437,52045,15953,0.76539,0.890395,0.537217,0.890395,0.462783,0.67012,0.827826,1.075583,0.321429
341,60398,7455,52007,15991,0.764831,0.89013,0.537325,0.89013,0.462675,0.670128,0.827414,1.075798,0.322034
342,60384,7469,51987,16011,0.764537,0.889924,0.537363,0.889924,0.462637,0.670099,0.827164,1.075874,0.322148
343,60357,7496,51948,16050,0.763964,0.889526,0.537438,0.889526,0.462562,0.670045,0.826678,1.076025,0.322581
344,60291,7562,51839,16159,0.762361,0.888553,0.537688,0.888553,0.462312,0.669963,0.82539,1.076526,0.323232
345,60275,7578,51810,16188,0.761934,0.888317,0.537762,0.888317,0.462238,0.669953,0.825058,1.076672,0.323529
346,60240,7613,51747,16251,0.761008,0.887802,0.53792,0.887802,0.46208,0.669929,0.824337,1.076989,0.323944
347,60203,7650,51678,16320,0.759993,0.887256,0.538099,0.887256,0.461901,0.669912,0.823557,1.077347,0.324074
348,60178,7675,51646,16352,0.759522,0.886888,0.538149,0.886888,0.461851,0.669846,0.823137,1.077448,0.324324
349,60137,7716,51560,16438,0.758258,0.886284,0.538394,0.886284,0.461606,0.669864,0.822202,1.077939,0.324675
350,60124,7729,51544,16454,0.758022,0.886092,0.538417,0.886092,0.461583,0.669827,0.821989,1.077985,0.325
351,60083,7770,51470,16528,0.756934,0.885488,0.538605,0.885488,0.461395,0.669799,0.821142,1.078361,0.325301
352,60060,7793,51438,16560,0.756463,0.885149,0.538664,0.885149,0.461336,0.669748,0.820737,1.07848,0.325581
353,60033,7820,51382,16616,0.75564,0.884751,0.538823,0.884751,0.461177,0.669757,0.820126,1.078798,0.325843
354,59981,7872,51308,16690,0.754552,0.883984,0.538966,0.883984,0.461034,0.669648,0.819199,1.079084,0.326087
355,59953,7900,51281,16717,0.754155,0.883572,0.538981,0.883572,0.461019,0.669541,0.818794,1.079114,0.326316
356,59922,7931,51240,16758,0.753552,0.883115,0.539051,0.883115,0.460949,0.669463,0.818264,1.079254,0.326531
357,59905,7948,51233,16765,0.753449,0.882864,0.539015,0.882864,0.460985,0.669363,0.818087,1.079181,0.326733
358,59888,7965,51206,16792,0.753052,0.882614,0.539075,0.882614,0.460925,0.669338,0.817764,1.079302,0.326923
359,59877,7976,51181,16817,0.752684,0.882452,0.539151,0.882452,0.460849,0.66935,0.817499,1.079454,0.327273
360,59863,7990,51155,16843,0.752302,0.882245,0.539219,0.882245,0.460781,0.669343,0.817204,1.07959,0.327381
361,59842,8011,51109,16889,0.751625,0.881936,0.539355,0.881936,0.460645,0.669359,0.816711,1.079863,0.327586
362,59808,8045,51070,16928,0.751052,0.881435,0.539404,0.881435,0.460596,0.669252,0.816174,1.07996,0.327869
363,59784,8069,51059,16939,0.75089,0.881081,0.539357,0.881081,0.460643,0.669114,0.815916,1.079868,0.33
364,59767,8086,51026,16972,0.750404,0.880831,0.539447,0.880831,0.460553,0.669111,0.815548,1.080048,0.330189
365,59725,8128,50953,17045,0.749331,0.880212,0.539628,0.880212,0.460372,0.669071,0.814701,1.08041,0.330275
366,59696,8157,50911,17087,0.748713,0.879784,0.539713,0.879784,0.460287,0.669013,0.814179,1.080579,0.330435
367,59674,8179,50887,17111,0.74836,0.87946,0.539738,0.87946,0.460262,0.668939,0.81384,1.08063,0.331492
368,59645,8208,50828,17170,0.747493,0.879033,0.539906,0.879033,0.460094,0.668943,0.813192,1.080965,0.333333
369,59166,8687,50132,17866,0.737257,0.871973,0.541327,0.871973,0.458673,0.667973,0.804543,1.083812,0.335443
370,59121,8732,50100,17898,0.736786,0.87131,0.541297,0.87131,0.458703,0.667755,0.803976,1.083751,0.336066
371,59103,8750,50069,17929,0.73633,0.871045,0.541375,0.871045,0.458625,0.667736,0.803616,1.083907,0.33657
372,59103,8750,50068,17930,0.736316,0.871045,0.54138,0.871045,0.45862,0.66774,0.803608,1.083917,0.337662
373,59091,8762,50049,17949,0.736036,0.870868,0.541424,0.870868,0.458576,0.667721,0.80338,1.084005,0.338028
374,59083,8770,50031,17967,0.735772,0.87075,0.54148,0.87075,0.45852,0.667729,0.803189,1.084116,0.338462
375,59066,8787,50017,17981,0.735566,0.870499,0.541478,0.870499,0.458522,0.667654,0.802961,1.084112,0.33871
376,59047,8806,49968,18030,0.734845,0.870219,0.541641,0.870219,0.458359,0.667696,0.80246,1.08444,0.338843
377,58993,8860,49898,18100,0.733816,0.869424,0.541762,0.869424,0.458238,0.667553,0.801547,1.084682,0.338983
378,58973,8880,49862,18136,0.733286,0.869129,0.541857,0.869129,0.458143,0.667538,0.801135,1.084872,0.339286
379,58952,8901,49841,18157,0.732977,0.868819,0.541873,0.868819,0.458127,0.667459,0.800826,1.084904,0.339623
380,58919,8934,49790,18208,0.732227,0.868333,0.541988,0.868333,0.458012,0.667403,0.800208,1.085135,0.34
381,58898,8955,49766,18232,0.731874,0.868024,0.542019,0.868024,0.457981,0.667335,0.799876,1.085197,0.340426
382,58875,8978,49734,18264,0.731404,0.867685,0.542082,0.867685,0.457918,0.667282,0.799471,1.085323,0.340909
383,58828,9025,49658,18340,0.730286,0.866992,0.542264,0.866992,0.457736,0.667215,0.798566,1.085686,0.341463
384,58809,9044,49640,18358,0.730021,0.866712,0.542273,0.866712,0.457727,0.667139,0.798294,1.085705,0.341865
385,58718,9135,49463,18535,0.727418,0.865371,0.542776,0.865371,0.457224,0.667121,0.796321,1.086711,0.342105
386,58692,9161,49437,18561,0.727036,0.864988,0.542796,0.864988,0.457204,0.667023,0.795938,1.086752,0.342857
387,58636,9217,49364,18634,0.725963,0.864162,0.542926,0.864162,0.457074,0.666875,0.794989,1.087012,0.343284
388,58613,9240,49342,18656,0.725639,0.863823,0.542939,0.863823,0.457061,0.666784,0.794657,1.087039,0.34375
389,58556,9297,49278,18720,0.724698,0.862983,0.54302,0.862983,0.45698,0.666595,0.793767,1.0872,0.344262
390,58519,9334,49209,18789,0.723683,0.862438,0.543211,0.862438,0.456789,0.666576,0.792986,1.087582,0.344414
391,58312,9541,48851,19147,0.718418,0.859387,0.544143,0.859387,0.455857,0.666362,0.788827,1.089449,0.344828
392,58307,9546,48839,19159,0.718242,0.859314,0.544183,0.859314,0.455817,0.66637,0.788702,1.089528,0.345455
393,58289,9564,48816,19182,0.717903,0.859048,0.544223,0.859048,0.455777,0.66632,0.788401,1.089609,0.345865
394,58264,9589,48778,19220,0.717345,0.85868,0.54431,0.85868,0.45569,0.666274,0.787937,1.089783,0.346154
395,58223,9630,48725,19273,0.716565,0.858076,0.544405,0.858076,0.455595,0.666163,0.787245,1.089973,0.346591
396,58192,9661,48669,19329,0.715742,0.857619,0.544558,0.857619,0.455442,0.66614,0.786604,1.090279,0.346939
397,58181,9672,48633,19365,0.715212,0.857457,0.544695,0.857457,0.455305,0.666193,0.786258,1.090553,0.347222
398,58161,9692,48613,19385,0.714918,0.857162,0.544711,0.857162,0.455289,0.666117,0.785964,1.090587,0.347826
399,58120,9733,48554,19444,0.71405,0.856558,0.544838,0.856558,0.455162,0.666029,0.785228,1.090839,0.348214
400,58099,9754,48517,19481,0.713506,0.856248,0.544937,0.856248,0.455063,0.666009,0.784801,1.091038,0.348315
401,58085,9768,48485,19513,0.713036,0.856042,0.545041,0.856042,0.454959,0.666025,0.784462,1.091246,0.349206
402,58077,9776,48456,19542,0.712609,0.855924,0.545155,0.855924,0.454845,0.666074,0.78419,1.091475,0.349345
403,58013,9840,48382,19616,0.711521,0.854981,0.545261,0.854981,0.454739,0.665867,0.783174,1.091686,0.349641
404,57725,10128,47857,20141,0.7038,0.850736,0.546731,0.850736,0.453269,0.665667,0.77719,1.094631,0.35
405,57648,10205,47773,20225,0.702565,0.849601,0.546836,0.849601,0.453164,0.665397,0.776005,1.094841,0.350511
406,57196,10657,46902,21096,0.689756,0.84294,0.549444,0.84294,0.450556,0.665259,0.766266,1.100062,0.350649
407,57146,10707,46818,21180,0.68852,0.842203,0.549671,0.842203,0.450329,0.665196,0.76528,1.100517,0.351351
408,57082,10771,46748,21250,0.687491,0.84126,0.549764,0.84126,0.450236,0.66497,0.764293,1.100703,0.351648
409,57064,10789,46727,21271,0.687182,0.840995,0.549797,0.840995,0.450203,0.664911,0.764006,1.100769,0.351852
410,57044,10809,46705,21293,0.686858,0.8407,0.549827,0.8407,0.450173,0.664841,0.763697,1.100829,0.352113
411,57025,10828,46689,21309,0.686623,0.84042,0.549829,0.84042,0.450171,0.664755,0.763439,1.100834,0.352273
412,56960,10893,46607,21391,0.685417,0.839462,0.549982,0.839462,0.450018,0.664567,0.762357,1.10114,0.352381
413,56944,10909,46587,21411,0.685123,0.839226,0.550019,0.839226,0.449981,0.664519,0.762092,1.101213,0.352941
414,56781,11072,46339,21659,0.681476,0.836824,0.55063,0.836824,0.44937,0.66421,0.759067,1.102437,0.353448
415,56753,11100,46313,21685,0.681094,0.836411,0.550647,0.836411,0.449353,0.664092,0.758669,1.102471,0.353488
416,56698,11155,46250,21748,0.680167,0.8356,0.550744,0.8356,0.449256,0.663907,0.757801,1.102665,0.353659
417,56676,11177,46223,21775,0.67977,0.835276,0.550793,0.835276,0.449207,0.66384,0.75744,1.102762,0.353846
418,56647,11206,46182,21816,0.679167,0.834849,0.550885,0.834849,0.449115,0.663772,0.756925,1.102948,0.353982
419,56617,11236,46147,21851,0.678652,0.834407,0.550942,0.834407,0.449058,0.663674,0.756446,1.103061,0.354167
420,56570,11283,46090,21908,0.677814,0.833714,0.551042,0.833714,0.448958,0.663527,0.755681,1.103262,0.35443
421,56532,11321,46047,21951,0.677182,0.833154,0.551107,0.833154,0.448893,0.663397,0.755085,1.103392,0.354839
422,56471,11382,45972,22026,0.676079,0.832255,0.551243,0.832255,0.448757,0.66321,0.754084,1.103664,0.355114
423,56389,11464,45858,22140,0.674402,0.831047,0.551498,0.831047,0.448502,0.66301,0.752641,1.104174,0.35514
424,56367,11486,45807,22191,0.673652,0.830722,0.551677,0.830722,0.448323,0.663036,0.752103,1.104532,0.355556
425,56313,11540,45740,22258,0.672667,0.829926,0.551802,0.829926,0.448198,0.662872,0.751213,1.104782,0.355932
426,56291,11562,45699,22299,0.672064,0.829602,0.551927,0.829602,0.448073,0.662859,0.750749,1.105033,0.35625
427,56253,11600,45655,22343,0.671417,0.829042,0.551998,0.829042,0.448002,0.662732,0.750145,1.105175,0.356295
428,56182,11671,45533,22465,0.669623,0.827996,0.552347,0.827996,0.447653,0.662649,0.748725,1.105875,0.356589
429,56162,11691,45506,22492,0.669226,0.827701,0.552406,0.827701,0.447594,0.662596,0.748379,1.105992,0.357143
430,56116,11737,45453,22545,0.668446,0.827023,0.552491,0.827023,0.447509,0.662441,0.74765,1.106163,0.358209
431,56079,11774,45408,22590,0.667784,0.826478,0.552573,0.826478,0.447427,0.662324,0.747046,1.106327,0.358491
432,56026,11827,45339,22659,0.66677,0.825697,0.552715,0.825697,0.447285,0.662175,0.746148,1.106612,0.358974
433,55964,11889,45277,22721,0.665858,0.824783,0.55278,0.824783,0.44722,0.661928,0.745236,1.106741,0.359649
434,55943,11910,45242,22756,0.665343,0.824473,0.552878,0.824473,0.447122,0.661899,0.744823,1.106938,0.359788
435,55875,11978,45117,22881,0.663505,0.823471,0.553262,0.823471,0.446738,0.66185,0.743403,1.107706,0.36
436,55809,12044,45030,22968,0.662225,0.822499,0.553447,0.822499,0.446553,0.661667,0.742276,1.108076,0.36036
437,55766,12087,44999,22999,0.661769,0.821865,0.553426,0.821865,0.446574,0.661448,0.741732,1.108035,0.360465
438,55742,12111,44976,23022,0.661431,0.821511,0.553446,0.821511,0.446554,0.661347,0.741386,1.108075,0.360656
439,55701,12152,44953,23045,0.661093,0.820907,0.553391,0.820907,0.446609,0.661112,0.740915,1.107964,0.361111
440,55646,12207,44898,23100,0.660284,0.820096,0.553449,0.820096,0.446551,0.660891,0.740105,1.108081,0.361446
441,55626,12227,44871,23127,0.659887,0.819802,0.553509,0.819802,0.446491,0.660838,0.739759,1.108201,0.361702
442,55620,12233,44857,23141,0.659681,0.819713,0.55356,0.819713,0.44644,0.660845,0.739612,1.108302,0.362069
443,55606,12247,44834,23164,0.659343,0.819507,0.553624,0.819507,0.446376,0.660824,0.739339,1.108431,0.362694
444,55566,12287,44772,23226,0.658431,0.818917,0.553788,0.818917,0.446212,0.660749,0.738589,1.10876,0.362903
445,55542,12311,44742,23256,0.65799,0.818564,0.553847,0.818564,0.446153,0.660676,0.738191,1.108878,0.363636
446,55452,12401,44592,23406,0.655784,0.817237,0.554276,0.817237,0.445724,0.660548,0.736424,1.109737,0.364238
447,55419,12434,44549,23449,0.655152,0.816751,0.554367,0.816751,0.445633,0.660454,0.735865,1.109919,0.364486
448,55408,12445,44512,23486,0.654607,0.816589,0.554524,0.816589,0.445476,0.660512,0.735512,1.110232,0.365079
449,55391,12462,44497,23501,0.654387,0.816338,0.554531,0.816338,0.445469,0.660435,0.735276,1.110247,0.365385
450,55369,12484,44471,23527,0.654005,0.816014,0.554577,0.816014,0.445423,0.660361,0.734923,1.11034,0.365854
451,55321,12532,44424,23574,0.653313,0.815307,0.554624,0.815307,0.445376,0.660163,0.734224,1.110434,0.366071
452,55297,12556,44390,23608,0.652813,0.814953,0.554706,0.814953,0.445294,0.660105,0.733797,1.110598,0.366197
453,55249,12604,44351,23647,0.65224,0.814246,0.554709,0.814246,0.445291,0.659875,0.733156,1.110603,0.366372
454,55248,12605,44351,23647,0.65224,0.814231,0.554704,0.814231,0.445296,0.659867,0.733149,1.110594,0.366667
455,55111,12742,44157,23841,0.649387,0.812212,0.555174,0.812212,0.444826,0.659534,0.730712,1.111534,0.367089
456,55085,12768,44142,23856,0.649166,0.811829,0.555141,0.811829,0.444859,0.659385,0.730411,1.111469,0.367347
457,55078,12775,44133,23865,0.649034,0.811725,0.55516,0.811725,0.44484,0.659364,0.730293,1.111507,0.367647
458,55026,12827,44070,23928,0.648107,0.810959,0.55528,0.810959,0.44472,0.659195,0.729446,1.111746,0.367816
459,55008,12845,44050,23948,0.647813,0.810694,0.555311,0.810694,0.444689,0.65913,0.729167,1.111809,0.368
460,54984,12869,44004,23994,0.647137,0.81034,0.555461,0.81034,0.444539,0.659119,0.728651,1.11211,0.368098
461,54942,12911,43950,24048,0.646343,0.809721,0.555576,0.809721,0.444424,0.658994,0.727945,1.112339,0.368421
462,54930,12923,43948,24050,0.646313,0.809544,0.555533,0.809544,0.444467,0.658906,0.727842,1.112253,0.369565
463,54894,12959,43911,24087,0.645769,0.809014,0.555579,0.809014,0.444421,0.658762,0.727304,1.112346,0.37037
464,54819,13034,43831,24167,0.644592,0.807908,0.555692,0.807908,0.444308,0.658475,0.726163,1.112571,0.370968
465,54777,13076,43767,24231,0.643651,0.807289,0.555863,0.807289,0.444137,0.658389,0.725383,1.112915,0.371134
466,54730,13123,43714,24284,0.642872,0.806597,0.555951,0.806597,0.444049,0.65822,0.724647,1.113089,0.371429
467,54696,13157,43674,24324,0.642284,0.806096,0.556023,0.806096,0.443977,0.658104,0.724102,1.113235,0.372549
468,54663,13190,43630,24368,0.641637,0.805609,0.556123,0.805609,0.443877,0.658012,0.723535,1.113434,0.373134
469,54618,13235,43554,24444,0.640519,0.804946,0.55635,0.804946,0.44365,0.657949,0.722645,1.113889,0.373494
470,54605,13248,43537,24461,0.640269,0.804754,0.556388,0.804754,0.443612,0.657911,0.722424,1.113964,0.373626
471,54583,13270,43511,24487,0.639886,0.80443,0.556436,0.80443,0.443564,0.657837,0.722071,1.11406,0.373913
472,54560,13293,43488,24510,0.639548,0.804091,0.556462,0.804091,0.443538,0.657742,0.721732,1.114113,0.375
473,54365,13488,43242,24756,0.63593,0.801217,0.556978,0.801217,0.443022,0.657138,0.718486,1.115147,0.376812
474,54339,13514,43208,24790,0.63543,0.800834,0.557055,0.800834,0.442945,0.657062,0.718044,1.1153,0.377358
475,54335,13518,43193,24805,0.63521,0.800775,0.557122,0.800775,0.442878,0.657089,0.717904,1.115435,0.377778
476,54297,13556,43143,24855,0.634475,0.800215,0.557235,0.800215,0.442765,0.656979,0.717256,1.115661,0.377953
477,54297,13556,43142,24856,0.63446,0.800215,0.557241,0.800215,0.442759,0.656983,0.717249,1.115673,0.378378
478,54259,13594,43092,24906,0.633725,0.799655,0.557354,0.799655,0.442646,0.656873,0.716601,1.1159,0.378481
479,54108,13745,42848,25150,0.630136,0.79743,0.558068,0.79743,0.441932,0.656615,0.713694,1.117328,0.378788
480,54093,13760,42829,25169,0.629857,0.797209,0.558109,0.797209,0.441891,0.656568,0.713443,1.11741,0.37931
481,54054,13799,42780,25218,0.629136,0.796634,0.558213,0.796634,0.441787,0.656445,0.712796,1.117619,0.38
482,54023,13830,42752,25246,0.628724,0.796177,0.558233,0.796177,0.441767,0.656304,0.712361,1.117659,0.380137
483,53969,13884,42675,25323,0.627592,0.795381,0.558431,0.795381,0.441569,0.65617,0.711397,1.118055,0.380952
484,53927,13926,42604,25394,0.626548,0.794762,0.55865,0.794762,0.44135,0.65611,0.710565,1.118493,0.381443
485,53887,13966,42560,25438,0.625901,0.794173,0.558721,0.794173,0.441279,0.655959,0.709947,1.118637,0.381818
486,53878,13975,42544,25454,0.625665,0.79404,0.558773,0.79404,0.441227,0.655949,0.709763,1.11874,0.382022
487,53857,13996,42524,25474,0.625371,0.793731,0.558793,0.793731,0.441207,0.655857,0.709461,1.11878,0.382199
488,53810,14043,42472,25526,0.624607,0.793038,0.558879,0.793038,0.441121,0.65568,0.708732,1.118953,0.382353
489,53682,14171,42302,25696,0.622107,0.791151,0.559281,0.791151,0.440719,0.65531,0.706539,1.119757,0.382716
490,53657,14196,42276,25722,0.621724,0.790783,0.559317,0.790783,0.440683,0.655209,0.706163,1.11983,0.382979
491,53624,14229,42245,25753,0.621268,0.790297,0.559347,0.790297,0.440653,0.655062,0.705692,1.119889,0.383333
492,53590,14263,42204,25794,0.620665,0.789796,0.55943,0.789796,0.44057,0.654946,0.70514,1.120055,0.384615
493,53340,14513,41895,26103,0.616121,0.786111,0.560088,0.786111,0.439912,0.654125,0.701025,1.121373,0.385714
494,53332,14521,41873,26125,0.615798,0.785993,0.560181,0.785993,0.439819,0.654148,0.700805,1.121558,0.386364
495,53273,14580,41803,26195,0.614768,0.785124,0.56032,0.785124,0.43968,0.653941,0.699855,1.121838,0.386667
496,53199,14654,41706,26292,0.613342,0.784033,0.56055,0.784033,0.43945,0.653719,0.698596,1.122298,0.386792
497,53175,14678,41671,26327,0.612827,0.783679,0.560646,0.783679,0.439354,0.653661,0.698162,1.122489,0.387097
498,53117,14736,41592,26406,0.611665,0.782825,0.560844,0.782825,0.439156,0.653498,0.697153,1.122887,0.387387
499,53090,14763,41560,26438,0.611194,0.782427,0.560909,0.782427,0.439091,0.653403,0.696719,1.123016,0.387755
500,53061,14792,41512,26486,0.610489,0.781999,0.561059,0.781999,0.438941,0.653356,0.696152,1.123316,0.388235
501,53044,14809,41469,26529,0.609856,0.781749,0.561235,0.781749,0.438765,0.653388,0.695711,1.123669,0.388489
502,53018,14835,41431,26567,0.609297,0.781366,0.56134,0.781366,0.43866,0.653325,0.69524,1.12388,0.388889
503,52959,14894,41354,26644,0.608165,0.780496,0.561524,0.780496,0.438476,0.653146,0.694239,1.124248,0.38961
504,52948,14905,41331,26667,0.607827,0.780334,0.56161,0.780334,0.43839,0.653147,0.693988,1.12442,0.389831
505,52939,14914,41307,26691,0.607474,0.780201,0.561711,0.780201,0.438289,0.653169,0.693745,1.124622,0.390244
506,52886,14967,41251,26747,0.60665,0.77942,0.561798,0.77942,0.438202,0.652954,0.692943,1.124797,0.390728
507,52716,15137,41083,26915,0.60418,0.776915,0.56201,0.776915,0.43799,0.652216,0.690455,1.125222,0.391304
508,52633,15220,40988,27010,0.602782,0.775692,0.562192,0.775692,0.437808,0.651907,0.689145,1.125586,0.391608
509,52607,15246,40944,27054,0.602135,0.775308,0.562335,0.775308,0.437665,0.651867,0.688629,1.125872,0.392157
510,52557,15296,40875,27123,0.601121,0.774572,0.562516,0.774572,0.437484,0.651728,0.687753,1.126234,0.392857
511,52543,15310,40858,27140,0.600871,0.774365,0.562553,0.774365,0.437447,0.65168,0.687525,1.126308,0.393443
512,52532,15321,40840,27158,0.600606,0.774203,0.56261,0.774203,0.43739,0.651661,0.687312,1.126422,0.393617
513,52502,15351,40816,27182,0.600253,0.773761,0.562614,0.773761,0.437386,0.651507,0.686914,1.12643,0.393939
514,52470,15383,40785,27213,0.599797,0.773289,0.562651,0.773289,0.437349,0.651364,0.686451,1.126504,0.394366
515,52459,15394,40759,27239,0.599415,0.773127,0.562756,0.773127,0.437244,0.651377,0.686178,1.126715,0.394464
516,52396,15457,40683,27315,0.598297,0.772199,0.56292,0.772199,0.43708,0.651157,0.685155,1.127042,0.394737
517,52365,15488,40635,27363,0.597591,0.771742,0.563065,0.771742,0.436935,0.651091,0.684574,1.127332,0.394928
518,52306,15547,40556,27442,0.596429,0.770872,0.563266,0.770872,0.436734,0.650916,0.683558,1.127736,0.395349
519,52274,15579,40523,27475,0.595944,0.770401,0.563316,0.770401,0.436684,0.650781,0.683079,1.127835,0.395833
520,52244,15609,40485,27513,0.595385,0.769959,0.563405,0.769959,0.436595,0.650683,0.682579,1.128014,0.396226
521,52226,15627,40466,27532,0.595106,0.769693,0.563436,0.769693,0.436564,0.650609,0.682306,1.128076,0.396552
522,52210,15643,40442,27556,0.594753,0.769458,0.563506,0.769458,0.436494,0.650572,0.682012,1.128217,0.396825
523,52195,15658,40430,27568,0.594576,0.769236,0.563509,0.769236,0.436491,0.650494,0.681813,1.128222,0.396947
524,52165,15688,40391,27607,0.594003,0.768794,0.563605,0.768794,0.436395,0.6504,0.681305,1.128414,0.39759
525,52145,15708,40375,27623,0.593767,0.7685,0.563608,0.7685,0.436392,0.650296,0.68104,1.12842,0.397959
526,52115,15738,40347,27651,0.593356,0.768057,0.563637,0.768057,0.436363,0.650158,0.680613,1.128478,0.398148
527,52091,15762,40326,27672,0.593047,0.767704,0.563652,0.767704,0.436348,0.650041,0.680282,1.128508,0.398305
528,52015,15838,40247,27751,0.591885,0.766584,0.563775,0.766584,0.436225,0.649721,0.679141,1.128755,0.4
529,51595,16258,39746,28252,0.584517,0.760394,0.564861,0.760394,0.435139,0.648203,0.672362,1.13093,0.400326
530,51269,16584,39178,28820,0.576164,0.755589,0.56684,0.755589,0.43316,0.647745,0.665781,1.134892,0.40113
531,51222,16631,39121,28877,0.575326,0.754897,0.566973,0.754897,0.433027,0.647576,0.665015,1.135157,0.402299
532,51173,16680,39059,28939,0.574414,0.754174,0.567127,0.754174,0.432873,0.647411,0.664198,1.135466,0.402778
533,51146,16707,39041,28957,0.574149,0.753777,0.567111,0.753777,0.432889,0.647254,0.663867,1.135433,0.402878
534,50988,16865,38848,29150,0.571311,0.751448,0.567568,0.751448,0.432432,0.646691,0.661283,1.136348,0.403509
535,50965,16888,38818,29180,0.57087,0.751109,0.567646,0.751109,0.432354,0.646616,0.660893,1.136506,0.403846
536,50937,16916,38795,29203,0.570531,0.750696,0.567657,0.750696,0.432343,0.64647,0.660518,1.136527,0.404136
537,49775,18078,37232,30766,0.547546,0.733571,0.57208,0.733571,0.42792,0.642839,0.640459,1.145383,0.404255
538,49739,18114,37197,30801,0.547031,0.733041,0.572134,0.733041,0.427866,0.642668,0.639936,1.14549,0.404762
539,49668,18185,37127,30871,0.546001,0.731994,0.572245,0.731994,0.427755,0.642336,0.638898,1.145713,0.405405
540,49641,18212,37102,30896,0.545634,0.731596,0.572277,0.731596,0.427723,0.642203,0.638516,1.145776,0.40625
541,49565,18288,37019,30979,0.544413,0.730476,0.57245,0.730476,0.42755,0.64188,0.637345,1.146123,0.406375
542,49495,18358,36955,31043,0.543472,0.729445,0.572527,0.729445,0.427473,0.64153,0.636359,1.146278,0.40678
543,49477,18376,36937,31061,0.543207,0.729179,0.572558,0.729179,0.427442,0.641446,0.636094,1.146339,0.406897
544,49445,18408,36893,31105,0.54256,0.728708,0.572691,0.728708,0.427309,0.641347,0.635535,1.146606,0.407407
545,49402,18451,36841,31157,0.541795,0.728074,0.572823,0.728074,0.427177,0.641185,0.634835,1.146871,0.407895
546,49380,18473,36824,31174,0.541545,0.72775,0.572827,0.72775,0.427173,0.641061,0.634548,1.146879,0.408163
547,49350,18503,36800,31198,0.541192,0.727308,0.572838,0.727308,0.427162,0.640897,0.634151,1.1469,0.408602
548,49313,18540,36740,31258,0.54031,0.726762,0.573054,0.726762,0.426946,0.64082,0.633437,1.147332,0.408759
549,49312,18541,36740,31258,0.54031,0.726748,0.573049,0.726748,0.426951,0.640811,0.633429,1.147322,0.408935
550,49238,18615,36663,31335,0.539178,0.725657,0.573195,0.725657,0.426805,0.640478,0.632318,1.147614,0.409091
551,49206,18647,36621,31377,0.53856,0.725185,0.573316,0.725185,0.426684,0.64037,0.631773,1.147857,0.409639
552,49192,18661,36599,31399,0.538236,0.724979,0.573393,0.724979,0.426607,0.640337,0.631508,1.148012,0.409836
553,49149,18704,36552,31446,0.537545,0.724345,0.573494,0.724345,0.426506,0.640153,0.630846,1.148213,0.41
554,49130,18723,36530,31468,0.537222,0.724065,0.573547,0.724065,0.426453,0.640076,0.630544,1.148319,0.410256
555,49121,18732,36523,31475,0.537119,0.723933,0.573549,0.723933,0.426451,0.640026,0.630426,1.148323,0.410526
556,49095,18758,36496,31502,0.536722,0.723549,0.5736,0.723549,0.4264,0.639908,0.630036,1.148426,0.410714
557,49063,18790,36450,31548,0.536045,0.723078,0.573749,0.723078,0.426251,0.639816,0.629462,1.148724,0.410959
558,49039,18814,36436,31562,0.535839,0.722724,0.573723,0.722724,0.426277,0.639661,0.629182,1.148673,0.411111
559,48997,18856,36401,31597,0.535325,0.722105,0.573749,0.722105,0.426251,0.639435,0.628615,1.148724,0.411215
560,48975,18878,36374,31624,0.534927,0.721781,0.57382,0.721781,0.42618,0.639352,0.628254,1.148867,0.411765
561,48837,19016,36174,31824,0.531986,0.719747,0.574479,0.719747,0.425521,0.63896,0.625766,1.150185,0.411985
562,48782,19071,36076,31922,0.530545,0.718937,0.574866,0.718937,0.425134,0.63888,0.62464,1.150961,0.412245
563,48736,19117,36000,31998,0.529427,0.718259,0.575151,0.718259,0.424849,0.638788,0.623742,1.151531,0.412439
564,48598,19255,35799,32199,0.526471,0.716225,0.575826,0.716225,0.424174,0.638397,0.621247,1.152883,0.4125
565,48487,19366,35687,32311,0.524824,0.714589,0.576033,0.714589,0.423967,0.637874,0.619605,1.153297,0.412587
566,48395,19458,35579,32419,0.523236,0.713233,0.576309,0.713233,0.423691,0.637502,0.618133,1.15385,0.413043
567,48384,19469,35566,32432,0.523045,0.713071,0.576343,0.713071,0.423657,0.637458,0.617956,1.153918,0.413333
568,48368,19485,35538,32460,0.522633,0.712835,0.576455,0.712835,0.423545,0.637432,0.617633,1.154141,0.413793
569,48318,19535,35460,32538,0.521486,0.712098,0.576739,0.712098,0.423261,0.63731,0.61669,1.15471,0.414286
570,48294,19559,35436,32562,0.521133,0.711745,0.576783,0.711745,0.423217,0.637195,0.616337,1.154798,0.414634
571,48280,19573,35407,32591,0.520706,0.711538,0.576912,0.711538,0.423088,0.637192,0.61602,1.155056,0.414847
572,48222,19631,35329,32669,0.519559,0.710683,0.577156,0.710683,0.422844,0.636998,0.615019,1.155546,0.414966
573,48188,19665,35300,32698,0.519133,0.710182,0.577185,0.710182,0.422815,0.636814,0.614556,1.155603,0.415094
574,48180,19673,35286,32712,0.518927,0.710064,0.577241,0.710064,0.422759,0.6368,0.614394,1.155716,0.415493
575,48144,19709,35242,32756,0.51828,0.709534,0.577363,0.709534,0.422637,0.636661,0.613805,1.15596,0.415612
576,48011,19842,35089,32909,0.51603,0.707574,0.57775,0.707574,0.42225,0.636105,0.6117,1.156734,0.415966
577,47937,19916,35016,32982,0.514956,0.706483,0.577881,0.706483,0.422119,0.635744,0.610618,1.156998,0.416667
578,47828,20025,34902,33096,0.51328,0.704877,0.578122,0.704877,0.421878,0.635238,0.608976,1.157479,0.417582
579,47812,20041,34875,33123,0.512883,0.704641,0.578229,0.704641,0.421771,0.635207,0.608659,1.157693,0.418605
580,47778,20075,34838,33160,0.512339,0.70414,0.578314,0.70414,0.421686,0.635054,0.608137,1.157864,0.418941
581,47668,20185,34693,33305,0.510206,0.702519,0.578769,0.702519,0.421231,0.634668,0.60626,1.158775,0.419325
582,47443,20410,34367,33631,0.505412,0.699203,0.579917,0.699203,0.420083,0.633998,0.602204,1.161073,0.419355
583,47364,20489,34265,33733,0.503912,0.698038,0.580235,0.698038,0.419765,0.633708,0.600872,1.16171,0.419602
584,47228,20625,34074,33924,0.501103,0.696034,0.580896,0.696034,0.419104,0.633274,0.598464,1.163033,0.42
585,47192,20661,34034,33964,0.500515,0.695504,0.580996,0.695504,0.419004,0.633114,0.597905,1.163234,0.421053
586,47068,20785,33865,34133,0.498029,0.693676,0.581567,0.693676,0.418433,0.632694,0.595748,1.164378,0.421189
587,46992,20861,33740,34258,0.496191,0.692556,0.582074,0.692556,0.417926,0.632527,0.594269,1.165392,0.421875
588,46924,20929,33661,34337,0.495029,0.691554,0.582292,0.691554,0.417708,0.632237,0.593187,1.165828,0.422222
589,46904,20949,33631,34367,0.494588,0.691259,0.582405,0.691259,0.417595,0.63218,0.592819,1.166055,0.422566
590,46815,21038,33507,34491,0.492764,0.689947,0.582842,0.689947,0.417158,0.631888,0.591251,1.166929,0.423729
591,46795,21058,33491,34507,0.492529,0.689653,0.582854,0.689653,0.417146,0.631772,0.590986,1.166953,0.423762
592,46699,21154,33337,34661,0.490264,0.688238,0.583475,0.688238,0.416525,0.631541,0.589145,1.168197,0.424242
593,46649,21204,33286,34712,0.489514,0.687501,0.583587,0.687501,0.416413,0.631296,0.588402,1.16842,0.425
594,46628,21225,33270,34728,0.489279,0.687191,0.583594,0.687191,0.416406,0.63117,0.58813,1.168435,0.425532
595,46608,21245,33249,34749,0.48897,0.686897,0.583643,0.686897,0.416357,0.631074,0.587828,1.168534,0.425926
596,46583,21270,33220,34778,0.488544,0.686528,0.583725,0.686528,0.416275,0.630967,0.58743,1.168697,0.42623
597,46559,21294,33193,34805,0.488147,0.686175,0.583797,0.686175,0.416203,0.630859,0.587055,1.168842,0.426509
598,46248,21605,32767,35231,0.481882,0.681591,0.585307,0.681591,0.414693,0.62979,0.58163,1.171864,0.426667
599,46212,21641,32733,35265,0.481382,0.681061,0.58537,0.681061,0.41463,0.6296,0.581115,1.17199,0.426829
600,46187,21666,32710,35288,0.481044,0.680692,0.585409,0.680692,0.414591,0.629465,0.580761,1.172069,0.42735
601,46161,21692,32676,35322,0.480544,0.680309,0.585525,0.680309,0.414475,0.629368,0.58032,1.1723,0.428571
602,45933,21920,32436,35562,0.477014,0.676949,0.586112,0.676949,0.413888,0.628264,0.576875,1.173476,0.429752
603,45900,21953,32403,35595,0.476529,0.676462,0.586184,0.676462,0.413816,0.628096,0.576389,1.173622,0.430826
604,45123,22730,31354,36644,0.461102,0.665011,0.590021,0.665011,0.409979,0.625275,0.562948,1.181302,0.431034
605,45103,22750,31316,36682,0.460543,0.664716,0.590207,0.664716,0.409793,0.62525,0.562521,1.181675,0.431373
606,45092,22761,31298,36700,0.460278,0.664554,0.590287,0.664554,0.409713,0.625223,0.562307,1.181835,0.431579
607,45043,22810,31248,36750,0.459543,0.663832,0.59041,0.663832,0.40959,0.624972,0.561578,1.182082,0.431765
608,44841,23012,31030,36968,0.456337,0.660855,0.591016,0.660855,0.408984,0.623988,0.558487,1.183296,0.431818
609,44805,23048,30991,37007,0.455763,0.660325,0.591126,0.660325,0.408874,0.623812,0.557935,1.183516,0.432432
610,44787,23066,30962,37036,0.455337,0.660059,0.591255,0.660059,0.408745,0.623766,0.557589,1.183774,0.432584
611,44786,23067,30962,37036,0.455337,0.660045,0.59125,0.660045,0.40875,0.623756,0.557581,1.183763,0.432836
612,44772,23081,30939,37059,0.454999,0.659838,0.591354,0.659838,0.408646,0.623722,0.557309,1.183972,0.433079
613,44545,23308,30703,37295,0.451528,0.656493,0.591976,0.656493,0.408024,0.622567,0.553901,1.185217,0.433333
614,44407,23446,30551,37447,0.449293,0.654459,0.592425,0.654459,0.407575,0.621899,0.551766,1.186116,0.433735
615,44393,23460,30533,37465,0.449028,0.654253,0.592491,0.654253,0.407509,0.621842,0.551531,1.186249,0.434783
616,44222,23631,30353,37645,0.446381,0.651732,0.592987,0.651732,0.407013,0.620973,0.548947,1.187241,0.435484
617,44205,23648,30332,37666,0.446072,0.651482,0.593061,0.651482,0.406939,0.6209,0.548667,1.18739,0.435897
618,44140,23713,30265,37733,0.445087,0.650524,0.59324,0.650524,0.40676,0.620563,0.547696,1.187747,0.436296
619,43800,24053,29861,38137,0.439145,0.645513,0.594616,0.645513,0.405384,0.61902,0.542219,1.190502,0.436364
620,43770,24083,29831,38167,0.438704,0.645071,0.594693,0.645071,0.405307,0.618858,0.541777,1.190657,0.436782
621,43748,24105,29815,38183,0.438469,0.644747,0.594701,0.644747,0.405299,0.618714,0.541498,1.190673,0.4375
622,43643,24210,29709,38289,0.43691,0.643199,0.59498,0.643199,0.40502,0.618151,0.539944,1.191232,0.438596
623,43626,24227,29693,38305,0.436675,0.642949,0.595016,0.642949,0.404984,0.618055,0.539702,1.191304,0.439024
624,43591,24262,29654,38344,0.436101,0.642433,0.59514,0.642433,0.40486,0.617883,0.539157,1.191551,0.439394
625,43557,24296,29613,38385,0.435498,0.641932,0.595285,0.641932,0.404715,0.617729,0.538605,1.191842,0.43956
626,43527,24326,29594,38404,0.435219,0.64149,0.595274,0.64149,0.404726,0.617518,0.538244,1.191819,0.44
627,43451,24402,29520,38478,0.43413,0.64037,0.595456,0.64037,0.404544,0.617097,0.53714,1.192184,0.440367
628,43305,24548,29312,38686,0.431072,0.638218,0.596348,0.638218,0.403652,0.616573,0.534534,1.19397,0.440678
629,43279,24574,29278,38720,0.430571,0.637835,0.596483,0.637835,0.403517,0.616466,0.534092,1.19424,0.440945
630,43277,24576,29278,38720,0.430571,0.637805,0.596472,0.637805,0.403528,0.616446,0.534078,1.194218,0.441176
631,43232,24621,29226,38772,0.429807,0.637142,0.596649,0.637142,0.403351,0.616231,0.533364,1.194573,0.44186
632,43197,24656,29173,38825,0.429027,0.636626,0.596891,0.636626,0.403109,0.616119,0.532716,1.195057,0.44214
633,42972,24881,28904,39094,0.425071,0.63331,0.597863,0.63331,0.402137,0.615076,0.52908,1.197004,0.442308
634,42950,24903,28877,39121,0.424674,0.632986,0.597965,0.632986,0.402035,0.614977,0.528719,1.197207,0.442424
635,42851,25002,28796,39202,0.423483,0.631527,0.598085,0.631527,0.401915,0.614351,0.527394,1.197448,0.442623
636,42807,25046,28769,39229,0.423086,0.630879,0.598064,0.630879,0.401936,0.614033,0.526871,1.197405,0.442748
637,42784,25069,28737,39261,0.422615,0.63054,0.598202,0.63054,0.401798,0.613945,0.526466,1.197682,0.442857
638,42741,25112,28702,39296,0.422101,0.629906,0.598253,0.629906,0.401747,0.613672,0.525892,1.197785,0.444444
639,42594,25259,28553,39445,0.419909,0.627739,0.598676,0.627739,0.401324,0.612863,0.523713,1.198631,0.44525
640,42291,25562,28238,39760,0.415277,0.623274,0.599626,0.623274,0.400374,0.611221,0.519164,1.200533,0.445783
641,42273,25580,28219,39779,0.414997,0.623009,0.599685,0.623009,0.400315,0.611124,0.518892,1.200652,0.446429
642,42232,25621,28180,39818,0.414424,0.622404,0.599784,0.622404,0.400216,0.610885,0.518303,1.20085,0.446602
643,42231,25622,28180,39818,0.414424,0.62239,0.599778,0.62239,0.400222,0.610875,0.518296,1.200839,0.446809
644,42160,25693,28130,39868,0.413689,0.621343,0.599801,0.621343,0.400199,0.610382,0.517405,1.200883,0.447059
645,42160,25693,28129,39869,0.413674,0.621343,0.599809,0.621343,0.400191,0.610386,0.517398,1.2009,0.447115
646,42109,25744,28072,39926,0.412836,0.620592,0.600006,0.620592,0.399994,0.610125,0.516603,1.201294,0.447368
647,42078,25775,28036,39962,0.412306,0.620135,0.600137,0.620135,0.399863,0.609972,0.51611,1.201556,0.447761
648,42058,25795,28023,39975,0.412115,0.61984,0.600134,0.61984,0.399866,0.609828,0.515867,1.201551,0.44898
649,42047,25806,28010,39988,0.411924,0.619678,0.600183,0.619678,0.399817,0.609774,0.51569,1.201648,0.45
650,41956,25897,27917,40081,0.410556,0.618337,0.600461,0.618337,0.399539,0.609268,0.514336,1.202205,0.450704
651,41944,25909,27901,40097,0.410321,0.61816,0.60053,0.61816,0.39947,0.609217,0.514129,1.202343,0.451613
652,41841,26012,27782,40216,0.408571,0.616642,0.600965,0.616642,0.399035,0.608703,0.512495,1.203215,0.452381
653,41804,26049,27743,40255,0.407997,0.616097,0.60109,0.616097,0.39891,0.608501,0.511936,1.203464,0.453125
654,41778,26075,27712,40286,0.407541,0.615713,0.601209,0.615713,0.398791,0.608375,0.511516,1.203702,0.453846
655,41669,26184,27612,40386,0.406071,0.614107,0.601449,0.614107,0.398551,0.607712,0.509978,1.204184,0.454545
656,41540,26313,27494,40504,0.404335,0.612206,0.601732,0.612206,0.398268,0.606924,0.50816,1.204751,0.456522
657,41523,26330,27472,40526,0.404012,0.611955,0.601826,0.611955,0.398174,0.606848,0.507873,1.204939,0.457143
658,41480,26373,27423,40575,0.403291,0.611322,0.602006,0.611322,0.397994,0.606628,0.507195,1.205298,0.457627
659,41465,26388,27384,40614,0.402718,0.6111,0.60226,0.6111,0.39774,0.606648,0.506798,1.205807,0.458333
660,41445,26408,27367,40631,0.402468,0.610806,0.602293,0.610806,0.397707,0.60652,0.506526,1.205873,0.459459
661,41423,26430,27341,40657,0.402085,0.610481,0.602394,0.610481,0.397606,0.606411,0.506172,1.206075,0.459677
662,41376,26477,27270,40728,0.401041,0.609789,0.602745,0.609789,0.397255,0.606246,0.505304,1.206777,0.46
663,41351,26502,27244,40754,0.400659,0.60942,0.602828,0.60942,0.397172,0.606106,0.504928,1.206945,0.461538
664,41327,26526,27215,40783,0.400232,0.609067,0.602944,0.609067,0.397056,0.60599,0.504538,1.207177,0.461883
665,41266,26587,27166,40832,0.399512,0.608168,0.603022,0.608168,0.396978,0.605584,0.503728,1.207333,0.463087
666,41242,26611,27125,40873,0.398909,0.607814,0.603244,0.607814,0.396756,0.60552,0.50325,1.207778,0.463235
667,41202,26651,27101,40897,0.398556,0.607224,0.603224,0.607224,0.396776,0.605218,0.502779,1.207737,0.463415
668,41196,26657,27083,40915,0.398291,0.607136,0.603348,0.607136,0.396652,0.605236,0.502602,1.207985,0.463796
669,41058,26795,26934,41064,0.3961,0.605102,0.603865,0.605102,0.396135,0.604483,0.50049,1.209021,0.464286
670,41018,26835,26874,41124,0.395218,0.604513,0.604165,0.604513,0.395835,0.604339,0.499753,1.209622,0.464567
671,40990,26863,26829,41169,0.394556,0.6041,0.604403,0.6041,0.395597,0.604251,0.499216,1.210097,0.465517
672,40980,26873,26811,41187,0.394291,0.603953,0.604505,0.603953,0.395495,0.604229,0.49901,1.210302,0.466667
673,40827,27026,26666,41332,0.392159,0.601698,0.604907,0.601698,0.395093,0.603298,0.496816,1.211107,0.467517
674,40620,27233,26432,41566,0.388717,0.598647,0.605798,0.598647,0.394202,0.602202,0.49357,1.212892,0.46875
675,40563,27290,26365,41633,0.387732,0.597807,0.606069,0.597807,0.393931,0.60191,0.492657,1.213434,0.469072
676,40497,27356,26322,41676,0.3871,0.596834,0.60607,0.596834,0.39393,0.601417,0.491855,1.213435,0.469388
677,40485,27368,26313,41685,0.386967,0.596657,0.606081,0.596657,0.393919,0.601332,0.4917,1.213457,0.469512
678,40411,27442,26232,41766,0.385776,0.595567,0.60638,0.595567,0.39362,0.600925,0.49056,1.214056,0.470085
679,40319,27534,26155,41843,0.384644,0.594211,0.606538,0.594211,0.393462,0.600311,0.489316,1.214372,0.470588
680,40286,27567,26108,41890,0.383952,0.593725,0.606772,0.593725,0.393228,0.600177,0.488727,1.21484,0.470752
681,40182,27671,26007,41991,0.382467,0.592192,0.60708,0.592192,0.39292,0.599543,0.487218,1.215457,0.471698
682,40165,27688,25993,42005,0.382261,0.591941,0.607107,0.591941,0.392893,0.599428,0.486989,1.215512,0.472222
683,40117,27736,25938,42060,0.381452,0.591234,0.607327,0.591234,0.392673,0.599173,0.486231,1.215952,0.473684
684,40094,27759,25907,42091,0.380996,0.590895,0.607476,0.590895,0.392524,0.599071,0.485834,1.216249,0.474576
685,40083,27770,25892,42106,0.380776,0.590733,0.607548,0.590733,0.392452,0.599023,0.485642,1.216395,0.475
686,40060,27793,25866,42132,0.380394,0.590394,0.607651,0.590394,0.392349,0.598898,0.485282,1.216601,0.475113
687,40060,27793,25865,42133,0.380379,0.590394,0.60766,0.590394,0.39234,0.598903,0.485274,1.216619,0.47619
688,40040,27813,25845,42153,0.380085,0.590099,0.607726,0.590099,0.392274,0.598783,0.48498,1.21675,0.477273
689,39997,27856,25810,42188,0.37957,0.589465,0.607792,0.589465,0.392208,0.598489,0.484406,1.216884,0.478261
690,39949,27904,25772,42226,0.379011,0.588758,0.607857,0.588758,0.392143,0.598155,0.483773,1.217014,0.479167
691,39935,27918,25753,42245,0.378732,0.588552,0.60795,0.588552,0.39205,0.598093,0.48353,1.217199,0.48
692,39881,27972,25705,42293,0.378026,0.587756,0.608072,0.587756,0.391928,0.597741,0.482779,1.217443,0.482143
693,39842,28011,25667,42331,0.377467,0.587181,0.608191,0.587181,0.391809,0.597502,0.482212,1.217682,0.482609
694,39841,28012,25667,42331,0.377467,0.587166,0.608185,0.587166,0.391815,0.597491,0.482205,1.21767,0.482759
695,39799,28054,25627,42371,0.376879,0.586547,0.608306,0.586547,0.391694,0.597228,0.481601,1.217911,0.483333
696,39777,28076,25614,42384,0.376688,0.586223,0.608295,0.586223,0.391705,0.597055,0.481344,1.217889,0.484848
697,39767,28086,25603,42395,0.376526,0.586076,0.608337,0.586076,0.391663,0.596999,0.481189,1.217974,0.485437
698,39739,28114,25580,42418,0.376188,0.585663,0.608383,0.585663,0.391617,0.596807,0.480814,1.218067,0.486364
699,39625,28228,25466,42532,0.374511,0.583983,0.608763,0.583983,0.391237,0.596116,0.479135,1.218827,0.487179
700,39615,28238,25457,42541,0.374379,0.583836,0.608787,0.583836,0.391213,0.59605,0.478995,1.218875,0.487805
701,39602,28251,25440,42558,0.374129,0.583644,0.608868,0.583644,0.391132,0.595989,0.478775,1.219037,0.488372
702,39588,28265,25430,42568,0.373982,0.583438,0.608878,0.583438,0.391122,0.595886,0.478598,1.219056,0.489362
703,39576,28277,25420,42578,0.373835,0.583261,0.608899,0.583261,0.391101,0.595804,0.478436,1.219099,0.490196
704,39549,28304,25397,42601,0.373496,0.582863,0.608952,0.582863,0.391048,0.595622,0.478068,1.219205,0.490385
705,39517,28336,25360,42638,0.372952,0.582391,0.609106,0.582391,0.390894,0.595449,0.47756,1.219515,0.490779
706,39516,28337,25359,42639,0.372937,0.582377,0.60911,0.582377,0.39089,0.595443,0.477545,1.219521,0.494475
707,39516,28337,25357,42641,0.372908,0.582377,0.609129,0.582377,0.390871,0.595452,0.477531,1.219559,0.495082
708,39440,28413,25286,42712,0.371864,0.581257,0.609338,0.581257,0.390662,0.594966,0.476448,1.219978,0.5
709,39291,28562,25121,42877,0.369437,0.579061,0.609995,0.579061,0.390005,0.594125,0.474137,1.221294,0.504202
710,39290,28563,25120,42878,0.369423,0.579046,0.609998,0.579046,0.390002,0.594119,0.474122,1.2213,0.506562
711,39289,28564,25120,42878,0.369423,0.579031,0.609992,0.579031,0.390008,0.594109,0.474115,1.221288,0.508197
712,39273,28580,25100,42898,0.369129,0.578795,0.610085,0.578795,0.389915,0.594028,0.47385,1.221474,0.508772
713,39255,28598,25080,42918,0.368834,0.57853,0.610166,0.57853,0.389834,0.593927,0.47357,1.221635,0.511111
714,39243,28610,25072,42926,0.368717,0.578353,0.610169,0.578353,0.389831,0.593835,0.473423,1.221641,0.511628
715,39239,28614,25058,42940,0.368511,0.578294,0.610277,0.578294,0.389723,0.593855,0.473291,1.221859,0.512195
716,39231,28622,25049,42949,0.368378,0.578176,0.610314,0.578176,0.389686,0.593811,0.473165,1.221933,0.513514
717,39222,28631,25040,42958,0.368246,0.578044,0.610345,0.578044,0.389655,0.593755,0.473033,1.221995,0.514286
718,39194,28659,25015,42983,0.367878,0.577631,0.610413,0.577631,0.389587,0.59357,0.472643,1.22213,0.515152
719,39151,28702,24976,43022,0.367305,0.576997,0.610523,0.576997,0.389477,0.593287,0.472039,1.22235,0.516129
720,39142,28711,24966,43032,0.367158,0.576865,0.610563,0.576865,0.389437,0.593236,0.471899,1.222432,0.517241
721,39130,28723,24943,43055,0.36682,0.576688,0.61071,0.576688,0.38929,0.593211,0.471642,1.222724,0.517857
722,39080,28773,24898,43100,0.366158,0.575951,0.610835,0.575951,0.389165,0.59288,0.470942,1.222975,0.518519
723,39045,28808,24866,43132,0.365687,0.575435,0.610928,0.575435,0.389072,0.59265,0.470449,1.223161,0.519481
724,39037,28816,24847,43151,0.365408,0.575317,0.611061,0.575317,0.388939,0.592651,0.47025,1.223427,0.520833
725,39027,28826,24835,43163,0.365231,0.57517,0.611115,0.57517,0.388885,0.592598,0.470089,1.223535,0.521277
726,38993,28860,24808,43190,0.364834,0.574669,0.611166,0.574669,0.388834,0.592356,0.46964,1.223638,0.521739
727,38992,28861,24801,43197,0.364731,0.574654,0.611227,0.574654,0.388773,0.592377,0.469581,1.22376,0.522472
728,38949,28904,24748,43250,0.363952,0.57402,0.611473,0.57402,0.388527,0.592155,0.468874,1.224253,0.522523
729,38921,28932,24710,43288,0.363393,0.573608,0.611667,0.573608,0.388333,0.592026,0.468388,1.224642,0.522727
730,38886,28967,24679,43319,0.362937,0.573092,0.611752,0.573092,0.388248,0.591791,0.467902,1.224811,0.52381
731,38841,29012,24626,43372,0.362158,0.572429,0.611987,0.572429,0.388013,0.591547,0.467181,1.225282,0.525
732,38814,29039,24602,43396,0.361805,0.572031,0.612054,0.572031,0.387946,0.591366,0.466806,1.225415,0.525424
733,38711,29142,24503,43495,0.360349,0.570513,0.61238,0.570513,0.38762,0.590706,0.465319,1.226069,0.526316
734,38616,29237,24423,43575,0.359172,0.569113,0.612573,0.569113,0.387427,0.590044,0.46403,1.226455,0.527273
735,38581,29272,24390,43608,0.358687,0.568597,0.612679,0.568597,0.387321,0.589815,0.46353,1.226667,0.52741
736,38448,29405,24236,43762,0.356422,0.566637,0.613362,0.566637,0.386638,0.589074,0.461417,1.228035,0.527473
737,38428,29425,24216,43782,0.356128,0.566342,0.613435,0.566342,0.386565,0.588948,0.461123,1.22818,0.527778
738,38408,29445,24189,43809,0.355731,0.566047,0.613576,0.566047,0.386424,0.588854,0.460777,1.228463,0.528061
739,38323,29530,24089,43909,0.35426,0.564794,0.614033,0.564794,0.385967,0.588385,0.459415,1.229377,0.528302
740,38306,29547,24074,43924,0.35404,0.564544,0.614075,0.564544,0.385925,0.588269,0.45918,1.229462,0.528736
741,38305,29548,24074,43924,0.35404,0.564529,0.614069,0.564529,0.385931,0.588258,0.459172,1.22945,0.529412
742,38267,29586,24036,43962,0.353481,0.563969,0.614208,0.563969,0.385792,0.588017,0.458613,1.229729,0.530612
743,38234,29619,23998,44000,0.352922,0.563483,0.614378,0.563483,0.385622,0.587831,0.45809,1.23007,0.53125
744,38165,29688,23916,44082,0.351716,0.562466,0.614761,0.562466,0.385239,0.587452,0.456979,1.230836,0.532258
745,38150,29703,23881,44117,0.351202,0.562245,0.615015,0.562245,0.384985,0.587447,0.456611,1.231344,0.533333
746,38037,29816,23745,44253,0.349201,0.560579,0.615665,0.560579,0.384335,0.586832,0.454778,1.232645,0.534483
747,38008,29845,23722,44276,0.348863,0.560152,0.615714,0.560152,0.384286,0.58662,0.454395,1.232743,0.534884
748,37992,29861,23698,44300,0.34851,0.559916,0.615853,0.559916,0.384147,0.586554,0.4541,1.233023,0.535714
749,37989,29864,23694,44304,0.348451,0.559872,0.615875,0.559872,0.384125,0.58654,0.454049,1.233066,0.536585
750,37943,29910,23642,44356,0.347687,0.559194,0.616108,0.559194,0.383892,0.586273,0.453328,1.233532,0.5375
751,37923,29930,23625,44373,0.347437,0.558899,0.616153,0.558899,0.383847,0.586131,0.453055,1.233623,0.538144
752,37779,30074,23514,44484,0.345804,0.556777,0.616367,0.556777,0.383633,0.585059,0.451178,1.234052,0.538462
753,37674,30179,23399,44599,0.344113,0.55523,0.616868,0.55523,0.383132,0.584428,0.449559,1.235055,0.539683
754,37651,30202,23372,44626,0.343716,0.554891,0.616997,0.554891,0.383003,0.584298,0.449191,1.235312,0.54
755,37610,30243,23329,44669,0.343084,0.554286,0.617175,0.554286,0.382825,0.584042,0.448572,1.235668,0.54023
756,37590,30263,23299,44699,0.342642,0.553992,0.617353,0.553992,0.382647,0.583959,0.448204,1.236025,0.540541
757,37560,30293,23273,44725,0.34226,0.55355,0.617428,0.55355,0.382572,0.583746,0.447792,1.236176,0.540984
758,37550,30303,23256,44742,0.34201,0.553402,0.617538,0.553402,0.382462,0.583714,0.447593,1.236395,0.541667
759,37506,30347,23217,44781,0.341437,0.552754,0.617657,0.552754,0.382343,0.583406,0.446982,1.236634,0.542373
760,37486,30367,23205,44793,0.34126,0.552459,0.617653,0.552459,0.382347,0.58324,0.446747,1.236627,0.542857
761,37432,30421,23155,44843,0.340525,0.551663,0.617822,0.551663,0.382178,0.582871,0.445981,1.236965,0.543103
762,37292,30561,23035,44963,0.33876,0.5496,0.618164,0.5496,0.381836,0.581869,0.444067,1.23765,0.543478
763,37267,30586,23017,44981,0.338495,0.549231,0.618191,0.549231,0.381809,0.581674,0.443751,1.237702,0.543624
764,37243,30610,22980,45018,0.337951,0.548878,0.618418,0.548878,0.381582,0.581577,0.443302,1.238158,0.54386
765,37186,30667,22906,45092,0.336863,0.548038,0.618818,0.548038,0.381182,0.581281,0.442338,1.238958,0.544118
766,37158,30695,22882,45116,0.33651,0.547625,0.618887,0.547625,0.381113,0.581079,0.441955,1.239097,0.544218
767,37117,30736,22831,45167,0.33576,0.547021,0.619153,0.547021,0.380847,0.580856,0.441278,1.23963,0.545455
768,37023,30830,22732,45266,0.334304,0.545635,0.61958,0.545635,0.38042,0.580261,0.439857,1.240484,0.54717
769,37009,30844,22724,45274,0.334186,0.545429,0.619574,0.545429,0.380426,0.580142,0.439695,1.240472,0.547297
770,36963,30890,22687,45311,0.333642,0.544751,0.619665,0.544751,0.380335,0.579798,0.439084,1.240654,0.547368
771,36929,30924,22651,45347,0.333113,0.54425,0.619822,0.54425,0.380178,0.579583,0.438569,1.240969,0.547619
772,36901,30952,22622,45376,0.332686,0.543837,0.619945,0.543837,0.380055,0.579403,0.438149,1.241215,0.548387
773,36851,31002,22578,45420,0.332039,0.543101,0.620084,0.543101,0.379916,0.579045,0.437457,1.241494,0.54902
774,36821,31032,22562,45436,0.331804,0.542658,0.62006,0.542658,0.37994,0.578783,0.437119,1.241444,0.549266
775,36705,31148,22448,45550,0.330127,0.540949,0.62051,0.540949,0.37949,0.578004,0.435426,1.242345,0.55
776,36652,31201,22382,45616,0.329157,0.540168,0.620863,0.540168,0.379137,0.577711,0.43455,1.243052,0.55102
777,36592,31261,22313,45685,0.328142,0.539283,0.621204,0.539283,0.378796,0.577352,0.4336,1.243735,0.551181
778,36564,31289,22289,45709,0.327789,0.538871,0.621277,0.538871,0.378723,0.577147,0.433217,1.243881,0.551724
779,36238,31615,22045,45953,0.324201,0.534066,0.621759,0.534066,0.378241,0.574586,0.429022,1.244847,0.551839
780,36152,31701,21981,46017,0.32326,0.532799,0.621884,0.532799,0.378116,0.573905,0.427917,1.245098,0.552083
781,36147,31706,21981,46017,0.32326,0.532725,0.621852,0.532725,0.378148,0.573848,0.427881,1.245032,0.552381
782,36112,31741,21946,46052,0.322745,0.532209,0.621999,0.532209,0.378001,0.573612,0.427365,1.245327,0.552632
783,36084,31769,21930,46068,0.322509,0.531797,0.621988,0.531797,0.378012,0.573367,0.427041,1.245305,0.552941
784,36059,31794,21917,46081,0.322318,0.531428,0.621964,0.531428,0.378036,0.573143,0.426762,1.245258,0.553191
785,36022,31831,21876,46122,0.321715,0.530883,0.622163,0.530883,0.377837,0.57291,0.426188,1.245656,0.553571
786,35927,31926,21788,46210,0.320421,0.529483,0.62249,0.529483,0.37751,0.572232,0.42484,1.24631,0.555556
787,35743,32110,21589,46409,0.317495,0.526771,0.623439,0.526771,0.376561,0.571043,0.422021,1.24821,0.556701
788,35716,32137,21568,46430,0.317186,0.526373,0.62349,0.526373,0.37651,0.57083,0.421668,1.248312,0.557377
789,35686,32167,21541,46457,0.316789,0.525931,0.623587,0.525931,0.376413,0.570611,0.421248,1.248506,0.557692
790,35661,32192,21518,46480,0.31645,0.525563,0.623673,0.525563,0.376327,0.57043,0.420895,1.248679,0.55814
791,35603,32250,21482,46516,0.315921,0.524708,0.623684,0.524708,0.376316,0.569931,0.420203,1.248701,0.558824
792,35567,32286,21437,46561,0.315259,0.524177,0.623939,0.524177,0.376061,0.569724,0.419607,1.249211,0.559322
793,35532,32321,21403,46595,0.314759,0.523661,0.62408,0.523661,0.37592,0.569478,0.419099,1.249494,0.559524
794,35491,32362,21362,46636,0.314156,0.523057,0.624259,0.523057,0.375741,0.569195,0.418495,1.249852,0.56
795,35477,32376,21350,46648,0.31398,0.522851,0.624298,0.522851,0.375702,0.569089,0.418304,1.249931,0.561798
796,35454,32399,21331,46667,0.3137,0.522512,0.624355,0.522512,0.375645,0.568912,0.417995,1.250044,0.561983
797,35410,32443,21295,46703,0.313171,0.521863,0.62446,0.521863,0.37554,0.56857,0.417406,1.250254,0.5625
798,35245,32608,21157,46841,0.311142,0.519432,0.624889,0.519432,0.375111,0.567301,0.415175,1.251114,0.563218
799,35226,32627,21140,46858,0.310891,0.519152,0.624951,0.519152,0.375049,0.56716,0.41491,1.251238,0.56338
800,35201,32652,21126,46872,0.310686,0.518783,0.62494,0.518783,0.37506,0.566935,0.414623,1.251216,0.563636
801,35186,32667,21111,46887,0.310465,0.518562,0.625007,0.518562,0.374993,0.56683,0.414403,1.251349,0.564103
802,35087,32766,21027,46971,0.30923,0.517103,0.625281,0.517103,0.374719,0.56607,0.413055,1.251898,0.565217
803,34986,32867,20920,47078,0.307656,0.515615,0.6258,0.515615,0.3742,0.565389,0.411524,1.252938,0.565574
804,34953,32900,20895,47103,0.307288,0.515128,0.625859,0.515128,0.374141,0.565121,0.411097,1.253056,0.566038
805,34927,32926,20878,47120,0.307038,0.514745,0.625876,0.514745,0.374124,0.564897,0.410781,1.253089,0.566667
806,34797,33056,20751,47247,0.305171,0.512829,0.626431,0.512829,0.373569,0.563966,0.408889,1.254201,0.567164
807,34775,33078,20730,47268,0.304862,0.512505,0.62652,0.512505,0.37348,0.563806,0.408573,1.254379,0.567568
808,34701,33152,20673,47325,0.304024,0.511414,0.626666,0.511414,0.373334,0.563204,0.407608,1.254671,0.568182
809,34691,33162,20663,47335,0.303877,0.511267,0.626712,0.511267,0.373288,0.563134,0.407461,1.254763,0.568627
810,34669,33184,20629,47369,0.303377,0.510943,0.626949,0.510943,0.373051,0.563032,0.407049,1.255237,0.568966
811,34642,33211,20614,47384,0.303156,0.510545,0.626936,0.510545,0.373064,0.562786,0.40674,1.255213,0.570313
812,34609,33244,20574,47424,0.302568,0.510059,0.627168,0.510059,0.372832,0.562583,0.406202,1.255676,0.570627
813,34027,33826,20085,47913,0.295376,0.501481,0.628825,0.501481,0.371175,0.55798,0.398319,1.258995,0.571429
814,33959,33894,19991,48007,0.293994,0.500479,0.629453,0.500479,0.370547,0.557605,0.397126,1.260252,0.572727
815,33932,33921,19970,48028,0.293685,0.500081,0.629513,0.500081,0.370487,0.557382,0.396773,1.260371,0.572816
816,33903,33950,19936,48062,0.293185,0.499654,0.629711,0.499654,0.370289,0.557194,0.396309,1.260767,0.573171
817,33856,33997,19889,48109,0.292494,0.498961,0.629938,0.498961,0.370062,0.556851,0.395617,1.261221,0.57377
818,33826,34027,19863,48135,0.292112,0.498519,0.630036,0.498519,0.369964,0.556614,0.395205,1.261418,0.574074
819,33817,34036,19856,48142,0.292009,0.498386,0.630056,0.498386,0.369944,0.556539,0.395087,1.261459,0.574257
820,33741,34112,19800,48198,0.291185,0.497266,0.63019,0.497266,0.36981,0.555892,0.394116,1.261727,0.574468
821,33731,34122,19795,48203,0.291112,0.497119,0.63018,0.497119,0.36982,0.555796,0.394005,1.261706,0.575
822,33673,34180,19750,48248,0.29045,0.496264,0.630309,0.496264,0.369691,0.555312,0.393247,1.261965,0.575221
823,33653,34200,19715,48283,0.289935,0.495969,0.630584,0.495969,0.369416,0.555234,0.392842,1.262515,0.575758
824,33548,34305,19618,48380,0.288508,0.494422,0.631005,0.494422,0.368995,0.554425,0.391355,1.263358,0.575835
825,33445,34408,19527,48471,0.28717,0.492904,0.631371,0.492904,0.368629,0.553611,0.389927,1.264092,0.576087
826,33421,34432,19512,48486,0.28695,0.49255,0.631383,0.49255,0.368617,0.553392,0.38964,1.264115,0.576271
827,33383,34470,19488,48510,0.286597,0.49199,0.631405,0.49199,0.368595,0.553047,0.389184,1.264159,0.576547
828,33202,34651,19358,48640,0.284685,0.489323,0.631697,0.489323,0.368303,0.551469,0.386894,1.264744,0.576577
829,33176,34677,19333,48665,0.284317,0.488939,0.631815,0.488939,0.368185,0.55127,0.386519,1.264981,0.576923
830,33126,34727,19292,48706,0.283714,0.488202,0.631958,0.488202,0.368042,0.550856,0.385849,1.265267,0.577465
831,33103,34750,19276,48722,0.283479,0.487863,0.63199,0.487863,0.36801,0.550652,0.385562,1.26533,0.577519
832,33039,34814,19200,48798,0.282361,0.48692,0.632459,0.48692,0.367541,0.550228,0.384532,1.266269,0.577778
833,32986,34867,19122,48876,0.281214,0.486139,0.633031,0.486139,0.366969,0.549945,0.383567,1.267416,0.57783
834,32871,34982,19027,48971,0.279817,0.484444,0.633377,0.484444,0.366623,0.548989,0.382021,1.268108,0.578125
835,32854,34999,19015,48983,0.279641,0.484194,0.633403,0.484194,0.366597,0.548838,0.381808,1.26816,0.578947
836,32821,35032,18971,49027,0.278993,0.483707,0.633708,0.483707,0.366292,0.54864,0.381241,1.26877,0.579439
837,32788,35065,18957,49041,0.278788,0.483221,0.633646,0.483221,0.366354,0.548303,0.380895,1.268646,0.579545
838,32762,35091,18928,49070,0.278361,0.482838,0.633817,0.482838,0.366183,0.548121,0.38049,1.268988,0.58
839,32746,35107,18909,49089,0.278082,0.482602,0.633937,0.482602,0.366063,0.548014,0.380233,1.269228,0.580189
840,32699,35154,18860,49138,0.277361,0.481909,0.634205,0.481909,0.365795,0.547667,0.379526,1.269766,0.580247
841,32656,35197,18832,49166,0.276949,0.481276,0.634245,0.481276,0.365755,0.547272,0.379003,1.269845,0.580537
842,32559,35294,18762,49236,0.27592,0.479846,0.634419,0.479846,0.365581,0.546411,0.377774,1.270193,0.580645
843,32459,35394,18648,49350,0.274243,0.478372,0.635118,0.478372,0.364882,0.545713,0.376199,1.271594,0.581081
844,32437,35416,18632,49366,0.274008,0.478048,0.63516,0.478048,0.36484,0.545517,0.375919,1.271678,0.581315
845,32343,35510,18573,49425,0.27314,0.476663,0.635223,0.476663,0.364777,0.544637,0.374793,1.271803,0.581395
846,32313,35540,18549,49449,0.272787,0.476221,0.635307,0.476221,0.364693,0.544379,0.374395,1.271972,0.581818
847,32260,35593,18495,49503,0.271993,0.47544,0.635602,0.47544,0.364398,0.543977,0.373608,1.272563,0.58209
848,32238,35615,18471,49527,0.27164,0.475115,0.635745,0.475115,0.364255,0.543817,0.373269,1.272849,0.583333
849,32153,35700,18404,49594,0.270655,0.473863,0.635975,0.473863,0.364025,0.543079,0.37215,1.27331,0.584906
850,32081,35772,18304,49694,0.269184,0.472801,0.636717,0.472801,0.363283,0.542651,0.370884,1.274795,0.585366
851,31993,35860,18216,49782,0.26789,0.471505,0.637197,0.471505,0.362803,0.541969,0.369589,1.275755,0.586207
852,31967,35886,18205,49793,0.267728,0.471121,0.637148,0.471121,0.362852,0.541699,0.369316,1.275658,0.586957
853,31893,35960,18148,49850,0.26689,0.470031,0.637337,0.470031,0.362663,0.541045,0.368352,1.276037,0.587242
854,31453,36400,17800,50198,0.261772,0.463546,0.638601,0.463546,0.361399,0.537171,0.362552,1.278566,0.587302
855,31382,36471,17755,50243,0.261111,0.4625,0.638663,0.4625,0.361337,0.53649,0.361698,1.278691,0.588235
856,31291,36562,17662,50336,0.259743,0.461159,0.639205,0.461159,0.360795,0.535777,0.360343,1.279776,0.589286
857,31263,36590,17635,50363,0.259346,0.460746,0.639351,0.460746,0.360649,0.53555,0.359938,1.280069,0.589744
858,31223,36630,17584,50414,0.258596,0.460157,0.639724,0.460157,0.360276,0.535282,0.359269,1.280815,0.59
859,31094,36759,17499,50499,0.257346,0.458255,0.639886,0.458255,0.360114,0.53405,0.357693,1.28114,0.590909
860,31034,36819,17448,50550,0.256596,0.457371,0.640114,0.457371,0.359886,0.533528,0.356876,1.281596,0.591398
861,31023,36830,17440,50558,0.256478,0.457209,0.640138,0.457209,0.359862,0.533426,0.356736,1.281644,0.591549
862,30984,36869,17408,50590,0.256008,0.456634,0.640271,0.456634,0.359729,0.533081,0.356214,1.28191,0.591743
863,30934,36919,17358,50640,0.255272,0.455897,0.640562,0.455897,0.359438,0.532679,0.355478,1.282492,0.591837
864,30895,36958,17313,50685,0.25461,0.455323,0.640869,0.455323,0.359131,0.532392,0.354859,1.283107,0.592593
865,30807,37046,17209,50789,0.253081,0.454026,0.641599,0.454026,0.358401,0.531756,0.353446,1.284568,0.59292
866,30775,37078,17187,50811,0.252757,0.453554,0.641654,0.453554,0.358346,0.531451,0.353049,1.284679,0.59322
867,30753,37100,17173,50825,0.252552,0.45323,0.641677,0.45323,0.358323,0.531236,0.352784,1.284725,0.59375
868,30618,37235,17045,50953,0.250669,0.45124,0.642385,0.45124,0.357615,0.530108,0.350848,1.286143,0.594203
869,30600,37253,17021,50977,0.250316,0.450975,0.642574,0.450975,0.357426,0.529989,0.350538,1.28652,0.594595
870,30539,37314,16960,51038,0.249419,0.450076,0.64294,0.450076,0.35706,0.529492,0.34964,1.287254,0.595238
871,30470,37383,16903,51095,0.248581,0.449059,0.643193,0.449059,0.356807,0.528874,0.348713,1.287761,0.595745
872,30386,37467,16816,51182,0.247301,0.447821,0.643744,0.447821,0.356256,0.5282,0.347454,1.288863,0.596059
873,30327,37526,16773,51225,0.246669,0.446951,0.643885,0.446951,0.356115,0.527642,0.346703,1.289147,0.596154
874,30310,37543,16744,51254,0.246243,0.446701,0.644154,0.446701,0.355846,0.527557,0.346365,1.289684,0.5962
875,30095,37758,16556,51442,0.243478,0.443532,0.645109,0.443532,0.354891,0.525658,0.343398,1.291597,0.596774
876,30075,37778,16540,51458,0.243242,0.443238,0.645179,0.443238,0.354821,0.525474,0.343133,1.291736,0.597015
877,30056,37797,16521,51477,0.242963,0.442958,0.645297,0.442958,0.354703,0.525317,0.342854,1.291973,0.597561
878,30034,37819,16494,51504,0.242566,0.442633,0.645504,0.442633,0.354496,0.525157,0.342493,1.292387,0.597701
879,29994,37859,16452,51546,0.241948,0.442044,0.645782,0.442044,0.354218,0.524834,0.341889,1.292944,0.598039
880,29974,37879,16434,51564,0.241684,0.441749,0.64588,0.441749,0.35412,0.524658,0.34161,1.29314,0.598086
881,29665,38188,16189,51809,0.238081,0.437195,0.646945,0.437195,0.353055,0.52178,0.337532,1.295272,0.598485
882,29583,38270,16130,51868,0.237213,0.435987,0.647146,0.435987,0.352854,0.520983,0.336494,1.295676,0.6
883,29216,38637,15775,52223,0.231992,0.430578,0.649374,0.430578,0.350626,0.517812,0.331179,1.300136,0.600939
884,29047,38806,15685,52313,0.230669,0.428087,0.649356,0.428087,0.350644,0.516001,0.329273,1.3001,0.601036
885,28978,38875,15653,52345,0.230198,0.42707,0.64928,0.42707,0.35072,0.515238,0.328529,1.299947,0.60177
886,28946,38907,15628,52370,0.22983,0.426599,0.649392,0.426599,0.350608,0.51493,0.328109,1.300172,0.601942
887,28912,38941,15599,52399,0.229404,0.426098,0.649547,0.426098,0.350453,0.514613,0.327646,1.300483,0.602151
888,28898,38955,15584,52414,0.229183,0.425891,0.649656,0.425891,0.350344,0.514497,0.327432,1.3007,0.602484
889,28856,38997,15547,52451,0.228639,0.425272,0.649866,0.425272,0.350134,0.514111,0.326851,1.301121,0.603175
890,28804,39049,15497,52501,0.227904,0.424506,0.650188,0.424506,0.349812,0.513651,0.3261,1.301766,0.603248
891,28673,39180,15384,52614,0.226242,0.422575,0.650816,0.422575,0.349184,0.51243,0.324304,1.303023,0.603306
892,28631,39222,15361,52637,0.225904,0.421956,0.650823,0.421956,0.349177,0.511976,0.323825,1.303037,0.603352
893,28585,39268,15327,52671,0.225404,0.421278,0.650961,0.421278,0.349039,0.51152,0.323236,1.303313,0.603448
894,28546,39307,15297,52701,0.224962,0.420704,0.651096,0.420704,0.348904,0.511137,0.322729,1.303583,0.603774
895,28538,39315,15283,52715,0.224757,0.420586,0.65124,0.420586,0.34876,0.511095,0.322567,1.303872,0.604167
896,28475,39378,15227,52771,0.223933,0.419657,0.651572,0.419657,0.348428,0.510511,0.321691,1.304536,0.604396
897,28450,39403,15208,52790,0.223654,0.419289,0.651656,0.419289,0.348344,0.510264,0.321367,1.304705,0.604651
898,28410,39443,15182,52816,0.223271,0.418699,0.651725,0.418699,0.348275,0.509848,0.320881,1.304843,0.604839
899,28315,39538,15117,52881,0.222315,0.417299,0.651939,0.417299,0.348061,0.508874,0.319703,1.305271,0.605263
900,28258,39595,15068,52930,0.221595,0.416459,0.652218,0.416459,0.347782,0.508333,0.318923,1.30583,0.605769
901,28231,39622,15048,52950,0.221301,0.416061,0.652303,0.416061,0.347697,0.508062,0.318577,1.305999,0.606061
902,28171,39682,15012,52986,0.220771,0.415177,0.652363,0.415177,0.347637,0.507421,0.31787,1.30612,0.606557
903,28092,39761,14960,53038,0.220006,0.414013,0.652513,0.414013,0.347487,0.506596,0.316906,1.306421,0.607143
904,28066,39787,14932,53066,0.219595,0.413629,0.652728,0.413629,0.347272,0.506373,0.316509,1.306851,0.607843
905,27958,39895,14848,53150,0.218359,0.412038,0.653133,0.412038,0.346867,0.5053,0.315095,1.307661,0.608247
906,27911,39942,14814,53184,0.217859,0.411345,0.653271,0.411345,0.346729,0.50482,0.314499,1.307938,0.608696
907,27889,39964,14779,53219,0.217345,0.411021,0.653628,0.411021,0.346372,0.504682,0.314079,1.308653,0.609375
908,27847,40006,14739,53259,0.216756,0.410402,0.6539,0.410402,0.3461,0.504296,0.313476,1.309198,0.609756
909,27797,40056,14688,53310,0.216006,0.409665,0.654278,0.409665,0.345722,0.503852,0.312732,1.309954,0.610169
910,27773,40080,14681,53317,0.215903,0.409311,0.65419,0.409311,0.34581,0.503558,0.312504,1.309779,0.611111
911,27717,40136,14651,53347,0.215462,0.408486,0.654197,0.408486,0.345803,0.502935,0.311871,1.309791,0.611501
912,27548,40305,14503,53495,0.213286,0.405995,0.655109,0.405995,0.344891,0.50131,0.309538,1.311618,0.61165
913,27521,40332,14478,53520,0.212918,0.405597,0.655278,0.405597,0.344722,0.501056,0.309155,1.311955,0.611765
914,27447,40406,14400,53598,0.211771,0.404507,0.655889,0.404507,0.344111,0.500401,0.308036,1.31318,0.61194
915,27425,40428,14375,53623,0.211403,0.404183,0.6561,0.404183,0.3439,0.500214,0.30769,1.313603,0.612245
916,27349,40504,14280,53718,0.210006,0.403063,0.65697,0.403063,0.34303,0.499607,0.306431,1.315344,0.612903
917,27252,40601,14171,53827,0.208403,0.401633,0.657895,0.401633,0.342105,0.498774,0.304915,1.317197,0.613208
918,27027,40826,14007,53991,0.205991,0.398317,0.658649,0.398317,0.341351,0.496423,0.302052,1.318705,0.613636
919,27002,40851,13966,54032,0.205388,0.397949,0.6591,0.397949,0.3409,0.496265,0.301566,1.319608,0.613793
920,26966,40887,13947,54051,0.205109,0.397418,0.659106,0.397418,0.340894,0.495853,0.301161,1.31962,0.614035
921,26946,40907,13929,54069,0.204844,0.397123,0.659229,0.397123,0.340771,0.495659,0.300881,1.319867,0.615385
922,26759,41094,13775,54223,0.202579,0.394367,0.660162,0.394367,0.339838,0.493768,0.298371,1.321734,0.615942
923,26718,41135,13735,54263,0.201991,0.393763,0.66047,0.393763,0.33953,0.49338,0.297775,1.322352,0.617021
924,26697,41156,13714,54284,0.201682,0.393453,0.660637,0.393453,0.339363,0.493183,0.297466,1.322686,0.617647
925,26637,41216,13675,54323,0.201109,0.392569,0.660771,0.392569,0.339229,0.492525,0.296737,1.322954,0.61809
926,26570,41283,13631,54367,0.200462,0.391582,0.660929,0.391582,0.339071,0.491791,0.29592,1.32327,0.618182
927,26420,41433,13538,54460,0.199094,0.389371,0.661194,0.389371,0.338806,0.490117,0.294131,1.323801,0.619048
928,26371,41482,13500,54498,0.198535,0.388649,0.661408,0.388649,0.338592,0.489603,0.293491,1.324229,0.619565
929,26249,41604,13415,54583,0.197285,0.386851,0.661784,0.386851,0.338216,0.488276,0.291967,1.324982,0.619718
930,26213,41640,13364,54634,0.196535,0.38632,0.662329,0.38632,0.337671,0.488001,0.291327,1.326074,0.619883
931,26169,41684,13324,54674,0.195947,0.385672,0.662624,0.385672,0.337376,0.487564,0.290708,1.326664,0.62069
932,26123,41730,13288,54710,0.195418,0.384994,0.662835,0.384994,0.337165,0.487079,0.290105,1.327087,0.621622
933,26080,41773,13230,54768,0.194565,0.38436,0.663444,0.38436,0.336556,0.486735,0.289361,1.328307,0.622222
934,26067,41786,13209,54789,0.194256,0.384169,0.663688,0.384169,0.336312,0.486647,0.289111,1.328794,0.622642
935,26041,41812,13197,54801,0.194079,0.383786,0.663668,0.383786,0.336332,0.486334,0.288831,1.328754,0.622807
936,26011,41842,13169,54829,0.193667,0.383343,0.663885,0.383343,0.336115,0.486037,0.288404,1.329188,0.622951
937,25991,41862,13162,54836,0.193565,0.383049,0.663832,0.383049,0.336168,0.485786,0.288205,1.329082,0.623656
938,25957,41896,13135,54863,0.193167,0.382548,0.663998,0.382548,0.336002,0.485427,0.287756,1.329414,0.623932
939,25920,41933,13102,54896,0.192682,0.382002,0.664241,0.382002,0.335759,0.485053,0.287241,1.329901,0.625
940,25786,42067,12987,55011,0.190991,0.380027,0.66505,0.380027,0.33495,0.483672,0.285408,1.331522,0.626866
941,25743,42110,12950,55048,0.190447,0.379394,0.665314,0.379394,0.334686,0.483228,0.284819,1.33205,0.627451
942,25706,42147,12917,55081,0.189961,0.378848,0.665562,0.378848,0.334438,0.482851,0.284304,1.332546,0.627907
943,25698,42155,12908,55090,0.189829,0.37873,0.665648,0.37873,0.334352,0.482777,0.284179,1.332718,0.628023
944,25342,42511,12649,55349,0.18602,0.373484,0.667053,0.373484,0.332947,0.478856,0.279652,1.335531,0.628099
945,25308,42545,12619,55379,0.185579,0.372983,0.667282,0.372983,0.332718,0.478503,0.279181,1.33599,0.628571
946,25282,42571,12591,55407,0.185167,0.3726,0.667547,0.3726,0.332453,0.478255,0.278783,1.33652,0.629032
947,25269,42584,12575,55423,0.184932,0.372408,0.667715,0.372408,0.332285,0.47814,0.27857,1.336857,0.62963
948,25213,42640,12524,55474,0.184182,0.371583,0.668124,0.371583,0.331876,0.477564,0.277782,1.337676,0.630435
949,25155,42698,12470,55528,0.183388,0.370728,0.668571,0.370728,0.331429,0.476972,0.276958,1.338572,0.630769
950,25134,42719,12456,55542,0.183182,0.370418,0.668635,0.370418,0.331365,0.476732,0.2767,1.338699,0.631579
951,25020,42833,12356,55642,0.181711,0.368738,0.669414,0.368738,0.330586,0.475534,0.275125,1.340258,0.632353
952,24962,42891,12327,55671,0.181285,0.367884,0.66942,0.367884,0.33058,0.474825,0.274485,1.34027,0.632653
953,24943,42910,12315,55683,0.181108,0.367603,0.669467,0.367603,0.330533,0.474603,0.274256,1.340365,0.632911
954,24926,42927,12297,55701,0.180844,0.367353,0.66964,0.367353,0.33036,0.474438,0.273999,1.34071,0.633028
955,24882,42971,12273,55725,0.180491,0.366704,0.669681,0.366704,0.330319,0.473907,0.273498,1.340793,0.633333
956,24754,43099,12182,55816,0.179152,0.364818,0.670186,0.364818,0.329814,0.472454,0.271886,1.341805,0.633803
957,24737,43116,12172,55826,0.179005,0.364568,0.670216,0.364568,0.329784,0.472251,0.271687,1.341864,0.634146
958,24691,43162,12140,55858,0.178535,0.36389,0.670386,0.36389,0.329614,0.471724,0.271113,1.342205,0.634615
959,24666,43187,12114,55884,0.178152,0.363521,0.670636,0.363521,0.329364,0.471476,0.270738,1.342706,0.636364
960,24397,43456,11877,56121,0.174667,0.359557,0.672575,0.359557,0.327425,0.468601,0.267013,1.346588,0.637131
961,24328,43525,11820,56178,0.173829,0.35854,0.673011,0.35854,0.326989,0.467842,0.266086,1.34746,0.637931
962,24278,43575,11768,56230,0.173064,0.357803,0.673528,0.357803,0.326472,0.467338,0.265335,1.348496,0.638298
963,24254,43599,11745,56253,0.172726,0.357449,0.673741,0.357449,0.326259,0.467088,0.264989,1.348922,0.638889
964,24219,43634,11727,56271,0.172461,0.356933,0.673761,0.356933,0.326239,0.466652,0.264599,1.348961,0.639344
965,24206,43647,11711,56287,0.172226,0.356742,0.673943,0.356742,0.326057,0.466532,0.264385,1.349326,0.63964
966,24173,43680,11691,56307,0.171932,0.356255,0.674019,0.356255,0.325981,0.466134,0.263995,1.349477,0.64
967,24140,43713,11676,56322,0.171711,0.355769,0.674,0.355769,0.326,0.465713,0.263642,1.349441,0.640351
968,24102,43751,11653,56345,0.171373,0.355209,0.674088,0.355209,0.325912,0.465254,0.263193,1.349616,0.641026
969,23956,43897,11557,56441,0.169961,0.353057,0.67457,0.353057,0.32543,0.463518,0.261411,1.350581,0.641304
970,23902,43951,11508,56490,0.16924,0.352262,0.675007,0.352262,0.324993,0.462934,0.260653,1.351457,0.641509
971,23884,43969,11497,56501,0.169079,0.351996,0.675052,0.351996,0.324948,0.462716,0.26044,1.351546,0.641975
972,23856,43997,11481,56517,0.168843,0.351584,0.6751,0.351584,0.3249,0.46237,0.260116,1.351642,0.642336
973,23832,44021,11457,56541,0.16849,0.35123,0.675338,0.35123,0.324662,0.46212,0.259763,1.352119,0.642857
974,23725,44128,11378,56620,0.167328,0.349653,0.675868,0.349653,0.324132,0.460876,0.258393,1.353181,0.643836
975,23669,44184,11345,56653,0.166843,0.348828,0.675987,0.348828,0.324013,0.460186,0.257738,1.353418,0.644068
976,23645,44208,11336,56662,0.166711,0.348474,0.675938,0.348474,0.324062,0.459867,0.257495,1.353321,0.644444
977,23592,44261,11304,56694,0.16624,0.347693,0.676066,0.347693,0.323934,0.459216,0.25687,1.353577,0.645161
978,23549,44304,11280,56718,0.165887,0.347059,0.676132,0.347059,0.323868,0.458678,0.256376,1.353709,0.645503
979,23486,44367,11242,56756,0.165328,0.346131,0.676284,0.346131,0.323716,0.457902,0.255633,1.354014,0.645833
980,23467,44386,11228,56770,0.165123,0.345851,0.67638,0.345851,0.32362,0.457678,0.25539,1.354205,0.646154
981,23449,44404,11211,56787,0.164872,0.345585,0.676544,0.345585,0.323456,0.457483,0.255132,1.354533,0.647059
982,23387,44466,11145,56853,0.163902,0.344672,0.677256,0.344672,0.322744,0.456844,0.25419,1.355959,0.648649
983,23305,44548,11096,56902,0.163181,0.343463,0.677451,0.343463,0.322549,0.455826,0.253226,1.35635,0.649351
984,23284,44569,11077,56921,0.162902,0.343154,0.677629,0.343154,0.322371,0.455593,0.252932,1.356705,0.65
985,23274,44579,11062,56936,0.162681,0.343006,0.677831,0.343006,0.322169,0.455509,0.252747,1.35711,0.650485
986,23230,44623,11050,56948,0.162505,0.342358,0.677655,0.342358,0.322345,0.454897,0.252335,1.356757,0.650794
987,23117,44736,10985,57013,0.161549,0.340692,0.677878,0.340692,0.322122,0.453475,0.251025,1.357205,0.651163
988,23097,44756,10978,57020,0.161446,0.340398,0.677828,0.340398,0.322172,0.453202,0.250826,1.357105,0.652284
989,23002,44851,10907,57091,0.160402,0.338998,0.678345,0.338998,0.321655,0.452074,0.249604,1.35814,0.65272
990,22928,44925,10855,57143,0.159637,0.337907,0.678685,0.337907,0.321315,0.451179,0.248677,1.358819,0.652778
991,22905,44948,10836,57162,0.159358,0.337568,0.678848,0.337568,0.321152,0.450912,0.248368,1.359146,0.653061
992,22850,45003,10794,57204,0.15874,0.336757,0.67917,0.336757,0.32083,0.45026,0.247654,1.359792,0.653846
993,22829,45024,10767,57231,0.158343,0.336448,0.679515,0.336448,0.320485,0.450059,0.2473,1.360483,0.654545
994,22812,45041,10762,57236,0.158269,0.336197,0.679454,0.336197,0.320546,0.449821,0.247138,1.360361,0.654804
995,22722,45131,10704,57294,0.157416,0.334871,0.67977,0.334871,0.32023,0.448701,0.246049,1.360993,0.655172
996,22583,45270,10592,57406,0.155769,0.332822,0.680723,0.332822,0.319277,0.447064,0.244201,1.362902,0.655556
997,22556,45297,10573,57425,0.15549,0.332425,0.680854,0.332425,0.319146,0.446733,0.243863,1.363162,0.65625
998,22436,45417,10506,57492,0.154505,0.330656,0.681076,0.330656,0.318924,0.445181,0.242486,1.363607,0.656891
999,22335,45518,10453,57545,0.153725,0.329167,0.681194,0.329167,0.318806,0.443855,0.241353,1.363844,0.657143
1000,22298,45555,10427,57571,0.153343,0.328622,0.681375,0.328622,0.318625,0.443397,0.240889,1.364206,0.657895
1001,21958,45895,10212,57786,0.150181,0.323611,0.682561,0.323611,0.317439,0.439059,0.236804,1.366581,0.658228
1002,21904,45949,10171,57827,0.149578,0.322815,0.682899,0.322815,0.317101,0.438396,0.236104,1.367258,0.658537
1003,21872,45981,10149,57849,0.149254,0.322344,0.683052,0.322344,0.316948,0.437992,0.235707,1.367563,0.658824
1004,21848,46005,10143,57855,0.149166,0.32199,0.682942,0.32199,0.317058,0.437643,0.235486,1.367344,0.659091
1005,21748,46105,10081,57917,0.148254,0.320516,0.683276,0.320516,0.316724,0.436348,0.234293,1.368013,0.659341
1006,21715,46138,10065,57933,0.148019,0.32003,0.683291,0.32003,0.316709,0.4359,0.233933,1.368043,0.659574
1007,21703,46150,10045,57953,0.147725,0.319853,0.683602,0.319853,0.316398,0.435799,0.233697,1.368665,0.659701
1008,21485,46368,9928,58070,0.146004,0.31664,0.683953,0.31664,0.316047,0.432877,0.231231,1.369367,0.659942
1009,21391,46462,9853,58145,0.144901,0.315255,0.684643,0.315255,0.315357,0.431718,0.229987,1.37075,0.66
1010,21367,46486,9834,58164,0.144622,0.314901,0.684818,0.314901,0.315182,0.431421,0.229671,1.371099,0.660714
1011,21349,46504,9818,58180,0.144387,0.314636,0.684987,0.314636,0.315013,0.431206,0.22942,1.371438,0.661017
1012,21314,46539,9786,58212,0.143916,0.31412,0.685338,0.31412,0.314662,0.43079,0.228927,1.37214,0.661538
1013,21292,46561,9773,58225,0.143725,0.313796,0.685402,0.313796,0.314598,0.430498,0.22867,1.372268,0.661765
1014,21254,46599,9754,58244,0.143445,0.313236,0.685436,0.313236,0.314564,0.429977,0.22825,1.372337,0.661871
1015,21211,46642,9731,58267,0.143107,0.312602,0.685508,0.312602,0.314492,0.429394,0.227764,1.372482,0.6625
1016,21190,46663,9715,58283,0.142872,0.312293,0.68565,0.312293,0.31435,0.42913,0.227492,1.372764,0.663265
1017,21130,46723,9676,58322,0.142298,0.311408,0.685905,0.311408,0.314095,0.428344,0.226763,1.373276,0.664063
1018,21105,46748,9653,58345,0.14196,0.31104,0.686163,0.31104,0.313837,0.428046,0.22641,1.373792,0.664122
1019,21072,46781,9617,58381,0.141431,0.310554,0.68663,0.310554,0.31337,0.427676,0.225902,1.374728,0.666667
1020,20371,47482,9111,58887,0.133989,0.300223,0.690964,0.300223,0.309036,0.418575,0.217017,1.383405,0.669421
1021,20327,47526,9086,58912,0.133622,0.299574,0.691089,0.299574,0.308911,0.417967,0.216509,1.383655,0.669492
1022,20276,47577,9050,58948,0.133092,0.298822,0.6914,0.298822,0.3086,0.417292,0.215869,1.384278,0.670588
1023,20248,47605,9038,58960,0.132916,0.29841,0.691388,0.29841,0.308612,0.416887,0.215574,1.384254,0.670886
1024,20221,47632,9019,58979,0.132636,0.298012,0.691553,0.298012,0.308447,0.416528,0.215236,1.384583,0.671233
1025,20174,47679,9002,58996,0.132386,0.297319,0.691459,0.297319,0.308541,0.415834,0.214765,1.384395,0.671429
1026,20128,47725,8973,59025,0.13196,0.296641,0.69166,0.296641,0.30834,0.415207,0.214213,1.384798,0.671642
1027,20107,47746,8955,59043,0.131695,0.296332,0.691866,0.296332,0.308134,0.414941,0.213926,1.38521,0.672131
1028,20088,47765,8935,59063,0.131401,0.296052,0.692141,0.296052,0.307859,0.414716,0.213638,1.385761,0.672414
1029,20064,47789,8917,59081,0.131136,0.295698,0.692316,0.295698,0.307684,0.4144,0.213329,1.386111,0.673077
1030,20039,47814,8904,59094,0.130945,0.29533,0.692361,0.29533,0.307639,0.414046,0.21305,1.386201,0.673469
1031,20010,47843,8881,59117,0.130607,0.294902,0.692603,0.294902,0.307397,0.413669,0.212667,1.386687,0.673684
1032,19982,47871,8854,59144,0.13021,0.29449,0.692953,0.29449,0.307047,0.413325,0.212262,1.387387,0.673913
1033,19912,47941,8805,59193,0.129489,0.293458,0.693387,0.293458,0.306613,0.412385,0.211386,1.388256,0.674242
1034,19874,47979,8782,59216,0.129151,0.292898,0.693537,0.292898,0.306463,0.411858,0.210937,1.388556,0.674419
1035,19863,47990,8766,59232,0.128916,0.292736,0.693807,0.292736,0.306193,0.411745,0.210738,1.389097,0.674699
1036,19834,48019,8748,59250,0.128651,0.292308,0.693933,0.292308,0.306067,0.411344,0.210392,1.389349,0.675
1037,19825,48028,8740,59258,0.128533,0.292176,0.694031,0.292176,0.305969,0.41123,0.210267,1.389545,0.675676
1038,19782,48071,8688,59310,0.127768,0.291542,0.694837,0.291542,0.305163,0.410743,0.209568,1.391158,0.676329
1039,19714,48139,8652,59346,0.127239,0.29054,0.694987,0.29054,0.305013,0.409774,0.208802,1.391459,0.676471
1040,19655,48198,8608,59390,0.126592,0.28967,0.695432,0.28967,0.304568,0.408985,0.208044,1.392351,0.677419
1041,19574,48279,8544,59454,0.125651,0.288477,0.696138,0.288477,0.303862,0.407915,0.206977,1.393763,0.679245
1042,19536,48317,8533,59465,0.125489,0.287917,0.695999,0.287917,0.304001,0.407331,0.206616,1.393486,0.679487
1043,19472,48381,8513,59485,0.125195,0.286973,0.695801,0.286973,0.304199,0.406352,0.205998,1.39309,0.68
1044,19390,48463,8449,59549,0.124254,0.285765,0.696505,0.285765,0.303495,0.405259,0.204923,1.394498,0.680328
1045,19353,48500,8421,59577,0.123842,0.28522,0.696803,0.28522,0.303197,0.40476,0.204445,1.395095,0.680851
1046,19257,48596,8366,59632,0.123033,0.283805,0.697136,0.283805,0.302864,0.403389,0.203333,1.395763,0.681319
1047,19229,48624,8355,59643,0.122871,0.283392,0.697107,0.283392,0.302893,0.402967,0.203046,1.395704,0.681818
1048,19159,48694,8323,59675,0.122401,0.28236,0.697147,0.28236,0.302853,0.40193,0.202295,1.395784,0.682171
1049,19117,48736,8299,59699,0.122048,0.281741,0.697294,0.281741,0.302706,0.401327,0.201809,1.396077,0.682432
1050,19059,48794,8272,59726,0.121651,0.280887,0.69734,0.280887,0.30266,0.400466,0.201184,1.39617,0.68254
1051,19037,48816,8257,59741,0.12143,0.280562,0.697479,0.280562,0.302521,0.40016,0.200911,1.396449,0.682927
1052,18988,48865,8234,59764,0.121092,0.27984,0.697524,0.27984,0.302476,0.399432,0.200381,1.396539,0.683333
1053,18969,48884,8218,59780,0.120856,0.27956,0.697723,0.27956,0.302277,0.399179,0.200124,1.396937,0.683544
1054,18943,48910,8203,59795,0.120636,0.279177,0.697819,0.279177,0.302181,0.398804,0.199822,1.39713,0.683673
1055,18910,48943,8184,59814,0.120356,0.278691,0.697941,0.278691,0.302059,0.398327,0.199439,1.397372,0.683871
1056,18851,49002,8153,59845,0.119901,0.277821,0.698082,0.277821,0.301918,0.397461,0.198777,1.397655,0.684211
1057,18709,49144,8054,59944,0.118445,0.275728,0.699062,0.275728,0.300938,0.395472,0.197003,1.399618,0.684615
1058,18673,49180,8030,59968,0.118092,0.275198,0.699285,0.275198,0.300715,0.394962,0.196561,1.400064,0.684783
1059,18657,49196,8006,59992,0.117739,0.274962,0.699734,0.274962,0.300266,0.39479,0.196266,1.400963,0.684932
1060,18614,49239,7980,60018,0.117356,0.274328,0.699932,0.274328,0.300068,0.394168,0.195759,1.40136,0.685065
1061,18520,49333,7922,60076,0.116503,0.272943,0.700401,0.272943,0.299599,0.39281,0.19464,1.402298,0.685714
1062,18466,49387,7887,60111,0.115989,0.272147,0.700717,0.272147,0.299283,0.392034,0.193985,1.402932,0.685897
1063,18393,49460,7856,60142,0.115533,0.271071,0.700712,0.271071,0.299288,0.390916,0.193219,1.402922,0.686275
1064,18378,49475,7842,60156,0.115327,0.27085,0.700915,0.27085,0.299085,0.390718,0.193006,1.403329,0.6875
1065,18305,49548,7789,60209,0.114547,0.269774,0.701502,0.269774,0.298498,0.389688,0.192078,1.404504,0.688312
1066,18283,49570,7778,60220,0.114386,0.26945,0.701546,0.26945,0.298454,0.389356,0.191835,1.404592,0.688525
1067,18224,49629,7750,60248,0.113974,0.268581,0.701625,0.268581,0.298375,0.38846,0.191195,1.404749,0.688679
1068,18173,49680,7702,60296,0.113268,0.267829,0.702338,0.267829,0.297662,0.387782,0.190466,1.406177,0.688889
1069,18107,49746,7676,60322,0.112886,0.266856,0.702284,0.266856,0.297716,0.386753,0.189789,1.40607,0.690476
1070,18090,49763,7663,60335,0.112694,0.266606,0.702442,0.266606,0.297558,0.386514,0.189568,1.406386,0.690909
1071,18073,49780,7655,60343,0.112577,0.266355,0.702464,0.266355,0.297536,0.386254,0.189384,1.40643,0.691358
1072,18044,49809,7630,60368,0.112209,0.265928,0.702812,0.265928,0.297188,0.385856,0.188986,1.407126,0.692308
1073,17964,49889,7584,60414,0.111533,0.264749,0.703147,0.264749,0.296853,0.384664,0.188059,1.407797,0.692708
1074,17907,49946,7543,60455,0.11093,0.263909,0.703615,0.263909,0.296385,0.383846,0.187338,1.408733,0.693069
1075,17867,49986,7519,60479,0.110577,0.263319,0.703813,0.263319,0.296187,0.383252,0.186866,1.40913,0.693548
1076,17840,50013,7503,60495,0.110341,0.262921,0.703942,0.262921,0.296058,0.382849,0.18655,1.409388,0.693878
1077,17798,50055,7476,60522,0.109944,0.262302,0.704202,0.262302,0.295798,0.382231,0.186042,1.409909,0.694444
1078,17693,50160,7400,60598,0.108827,0.260755,0.705097,0.260755,0.294903,0.380716,0.18471,1.411701,0.694581
1079,17634,50219,7352,60646,0.108121,0.259885,0.705755,0.259885,0.294245,0.379883,0.183922,1.413019,0.694611
1080,17575,50278,7323,60675,0.107694,0.259016,0.70588,0.259016,0.29412,0.378972,0.183274,1.413268,0.694915
1081,17551,50302,7316,60682,0.107591,0.258662,0.705795,0.258662,0.294205,0.378581,0.183046,1.413098,0.695122
1082,17523,50330,7296,60702,0.107297,0.258249,0.706032,0.258249,0.293968,0.378172,0.182693,1.413572,0.695652
1083,17503,50350,7288,60710,0.10718,0.257955,0.706022,0.257955,0.293978,0.377855,0.182487,1.413553,0.696078
1084,17464,50389,7272,60726,0.106944,0.25738,0.706016,0.25738,0.293984,0.377237,0.182082,1.41354,0.696203
1085,17439,50414,7256,60742,0.106709,0.257011,0.706175,0.257011,0.293825,0.376864,0.18178,1.41386,0.696296
1086,17388,50465,7227,60771,0.106283,0.25626,0.706399,0.25626,0.293601,0.376087,0.181191,1.414307,0.696429
1087,17287,50566,7163,60835,0.105341,0.254771,0.707035,0.254771,0.292965,0.374571,0.179977,1.41558,0.696833
1088,17221,50632,7130,60868,0.104856,0.253799,0.707199,0.253799,0.292801,0.373541,0.179248,1.415909,0.69697
1089,17166,50687,7101,60897,0.10443,0.252988,0.70738,0.252988,0.29262,0.372688,0.17863,1.416272,0.697674
1090,17064,50789,7038,60960,0.103503,0.251485,0.707991,0.251485,0.292009,0.371138,0.177415,1.417495,0.698182
1091,16961,50892,6996,61002,0.102885,0.249967,0.707977,0.249967,0.292023,0.36948,0.176348,1.417467,0.698413
1092,16930,50923,6985,61013,0.102724,0.24951,0.707924,0.24951,0.292076,0.368974,0.176038,1.417361,0.698675
1093,16826,51027,6916,61082,0.101709,0.247977,0.708702,0.247977,0.291298,0.3674,0.174765,1.418918,0.698795
1094,16805,51048,6906,61092,0.101562,0.247668,0.708743,0.247668,0.291257,0.367066,0.174537,1.419,0.699029
1095,16778,51075,6897,61101,0.101429,0.24727,0.70868,0.24727,0.29132,0.36662,0.174272,1.418875,0.7
1096,16566,51287,6761,61237,0.099429,0.244145,0.710164,0.244145,0.289836,0.363369,0.17171,1.421846,0.701493
1097,16553,51300,6746,61252,0.099209,0.243954,0.71046,0.243954,0.28954,0.363196,0.171504,1.422438,0.701754
1098,16481,51372,6719,61279,0.098812,0.242893,0.710388,0.242893,0.289612,0.362009,0.170775,1.422294,0.702128
1099,16464,51389,6713,61285,0.098723,0.242642,0.710359,0.242642,0.289641,0.361727,0.170606,1.422237,0.702381
1100,16428,51425,6698,61300,0.098503,0.242112,0.710369,0.242112,0.289631,0.361138,0.170231,1.422257,0.702539
1101,16129,51724,6539,61459,0.096165,0.237705,0.711532,0.237705,0.288468,0.356359,0.166859,1.424584,0.702703
1102,16094,51759,6512,61486,0.095768,0.237189,0.711935,0.237189,0.288065,0.35583,0.166403,1.425391,0.70283
1103,16008,51845,6480,61518,0.095297,0.235922,0.711846,0.235922,0.288154,0.354391,0.165534,1.425214,0.703125
1104,15991,51862,6466,61532,0.095091,0.235671,0.712072,0.235671,0.287928,0.354136,0.165306,1.425666,0.70339
1105,15954,51899,6432,61566,0.094591,0.235126,0.712678,0.235126,0.287322,0.353594,0.164783,1.426878,0.703422
1106,15769,52084,6353,61645,0.093429,0.232399,0.71282,0.232399,0.28718,0.35052,0.16284,1.427163,0.703704
1107,15757,52096,6338,61660,0.093209,0.232223,0.713148,0.232223,0.286852,0.350358,0.162641,1.42782,0.704545
1108,15732,52121,6325,61673,0.093017,0.231854,0.713243,0.231854,0.286757,0.34995,0.162362,1.42801,0.705
1109,15663,52190,6289,61709,0.092488,0.230837,0.713511,0.230837,0.286489,0.348822,0.161589,1.428547,0.705882
1110,15495,52358,6172,61826,0.090767,0.228361,0.715143,0.228361,0.284857,0.34618,0.159491,1.431814,0.70625
1111,15448,52405,6149,61849,0.090429,0.227669,0.715285,0.227669,0.284715,0.3454,0.158976,1.432098,0.706522
1112,15363,52490,6100,61898,0.089709,0.226416,0.71579,0.226416,0.28421,0.344015,0.157989,1.43311,0.706667
1113,15319,52534,6067,61931,0.089223,0.225767,0.71631,0.225767,0.28369,0.343325,0.157422,1.43415,0.707317
1114,15281,52572,6038,61960,0.088797,0.225207,0.716778,0.225207,0.283222,0.342731,0.156929,1.435089,0.707692
1115,15267,52586,6022,61976,0.088561,0.225001,0.717131,0.225001,0.282869,0.342532,0.156708,1.435794,0.708333
1116,15212,52641,5988,62010,0.088061,0.224191,0.717547,0.224191,0.282453,0.341639,0.156053,1.436628,0.708861
1117,15203,52650,5976,62022,0.087885,0.224058,0.717834,0.224058,0.282166,0.341518,0.155899,1.437201,0.709091
1118,15187,52666,5967,62031,0.087753,0.223822,0.717926,0.223822,0.282074,0.341254,0.155715,1.437386,0.709677
1119,15118,52735,5922,62076,0.087091,0.222805,0.718536,0.222805,0.281464,0.340139,0.154876,1.438608,0.710843
1120,15081,52772,5895,62103,0.086694,0.22226,0.718965,0.22226,0.281035,0.339551,0.154404,1.439465,0.711111
1121,15044,52809,5859,62139,0.086164,0.221715,0.719705,0.221715,0.280295,0.338997,0.153867,1.440949,0.711538
1122,15029,52824,5849,62149,0.086017,0.221494,0.719849,0.221494,0.280151,0.338754,0.153683,1.441236,0.711864
1123,14993,52860,5823,62175,0.085635,0.220963,0.720263,0.220963,0.279737,0.338179,0.153227,1.442066,0.712
1124,14952,52901,5804,62194,0.085355,0.220359,0.72037,0.220359,0.27963,0.337483,0.152785,1.442279,0.713178
1125,14899,52954,5781,62217,0.085017,0.219578,0.720455,0.219578,0.279545,0.336575,0.152226,1.442449,0.714286
1126,14637,53216,5620,62378,0.082649,0.215716,0.722565,0.215716,0.277435,0.332244,0.149112,1.446674,0.715686
1127,14600,53253,5604,62394,0.082414,0.215171,0.722629,0.215171,0.277371,0.331603,0.148722,1.446803,0.716049
1128,14551,53302,5560,62438,0.081767,0.214449,0.723534,0.214449,0.276466,0.33084,0.148037,1.448615,0.716102
1129,14461,53392,5527,62471,0.081282,0.213122,0.723484,0.213122,0.276516,0.329254,0.147132,1.448514,0.716981
1130,14422,53431,5502,62496,0.080914,0.212548,0.723851,0.212548,0.276149,0.328605,0.146661,1.449248,0.717105
1131,14366,53487,5480,62518,0.080591,0.211722,0.723874,0.211722,0.276126,0.327621,0.146087,1.449295,0.717391
1132,14305,53548,5454,62544,0.080208,0.210823,0.723974,0.210823,0.276026,0.326553,0.145446,1.449495,0.717557
1133,14264,53589,5431,62567,0.07987,0.210219,0.724245,0.210219,0.275755,0.325856,0.144975,1.450037,0.717949
1134,14223,53630,5409,62589,0.079546,0.209615,0.72448,0.209615,0.27552,0.325153,0.144511,1.450509,0.71875
1135,14196,53657,5393,62605,0.079311,0.209217,0.724692,0.209217,0.275308,0.324695,0.144195,1.450934,0.719512
1136,14175,53678,5381,62617,0.079135,0.208907,0.724841,0.208907,0.275159,0.324337,0.143952,1.451232,0.719626
1137,14137,53716,5371,62627,0.078988,0.208347,0.724677,0.208347,0.275323,0.323646,0.143599,1.450903,0.72
1138,14090,53763,5347,62651,0.078635,0.207655,0.724906,0.207655,0.275094,0.322832,0.143076,1.451361,0.72043
1139,14057,53796,5333,62665,0.078429,0.207168,0.724961,0.207168,0.275039,0.322249,0.14273,1.451472,0.72093
1140,14040,53813,5323,62675,0.078282,0.206918,0.725094,0.206918,0.274906,0.321959,0.142531,1.451738,0.721311
1141,14012,53841,5303,62695,0.077988,0.206505,0.725447,0.206505,0.274553,0.321494,0.142178,1.452443,0.721519
1142,13979,53874,5290,62708,0.077796,0.206019,0.725466,0.206019,0.274534,0.320906,0.141839,1.452482,0.722222
1143,13867,53986,5207,62791,0.076576,0.204368,0.727011,0.204368,0.272989,0.319049,0.140404,1.455575,0.722772
1144,13835,54018,5195,62803,0.076399,0.203897,0.72701,0.203897,0.27299,0.318474,0.14008,1.455574,0.723077
1145,13819,54034,5183,62815,0.076223,0.203661,0.727239,0.203661,0.272761,0.318209,0.139874,1.456033,0.723684
1146,13795,54058,5160,62838,0.075885,0.203307,0.727776,0.203307,0.272224,0.317828,0.139528,1.457108,0.725
1147,13719,54134,5116,62882,0.075238,0.202187,0.728378,0.202187,0.271622,0.316514,0.138645,1.458313,0.72549
1148,13690,54163,5098,62900,0.074973,0.20176,0.728657,0.20176,0.271343,0.316017,0.138299,1.45887,0.72619
1149,13627,54226,5074,62924,0.07462,0.200831,0.728678,0.200831,0.271322,0.314879,0.137658,1.458912,0.726563
1150,13585,54268,5054,62944,0.074326,0.200212,0.728848,0.200212,0.271152,0.314133,0.137202,1.459254,0.727273
1151,13438,54415,4956,63042,0.072884,0.198046,0.730564,0.198046,0.269436,0.311617,0.135398,1.46269,0.72807
1152,13386,54467,4937,63061,0.072605,0.197279,0.730557,0.197279,0.269443,0.310667,0.134876,1.462676,0.728395
1153,13365,54488,4924,63074,0.072414,0.19697,0.730767,0.19697,0.269233,0.310302,0.134625,1.463096,0.728814
1154,13353,54500,4915,63083,0.072282,0.196793,0.73095,0.196793,0.26905,0.310099,0.134471,1.463463,0.728972
1155,13316,54537,4900,63098,0.072061,0.196248,0.731006,0.196248,0.268994,0.309426,0.134088,1.463574,0.729167
1156,13213,54640,4870,63128,0.07162,0.19473,0.730686,0.19473,0.269314,0.307508,0.133109,1.462934,0.72973
1157,13142,54711,4840,63158,0.071179,0.193683,0.730842,0.193683,0.269158,0.306215,0.132366,1.463246,0.73
1158,13110,54743,4817,63181,0.07084,0.193212,0.731299,0.193212,0.268701,0.305666,0.131961,1.464161,0.730496
1159,13043,54810,4800,63198,0.07059,0.192224,0.730987,0.192224,0.269013,0.304402,0.131342,1.463536,0.730769
1160,12964,54889,4760,63238,0.070002,0.19106,0.731438,0.19106,0.268562,0.302979,0.130466,1.464438,0.731225
1161,12884,54969,4714,63284,0.069326,0.189881,0.732129,0.189881,0.267871,0.301553,0.129539,1.465822,0.731707
1162,12874,54979,4710,63288,0.069267,0.189734,0.732143,0.189734,0.267857,0.301368,0.129436,1.46585,0.732558
1163,12798,55055,4674,63324,0.068737,0.188614,0.732486,0.188614,0.267514,0.299982,0.128611,1.466538,0.732759
1164,12763,55090,4660,63338,0.068531,0.188098,0.732537,0.188098,0.267463,0.299334,0.128251,1.46664,0.733333
1165,12631,55222,4577,63421,0.067311,0.186152,0.734019,0.186152,0.265981,0.296987,0.126668,1.469607,0.734694
1166,12565,55288,4546,63452,0.066855,0.18518,0.734323,0.18518,0.265677,0.295772,0.125954,1.470215,0.735099
1167,12506,55347,4526,63472,0.066561,0.18431,0.734265,0.18431,0.265735,0.294657,0.125373,1.470099,0.735294
1168,12443,55410,4477,63521,0.06584,0.183382,0.735402,0.183382,0.264598,0.29356,0.124548,1.472375,0.735849
1169,12417,55436,4466,63532,0.065678,0.182999,0.735474,0.182999,0.264526,0.293075,0.124276,1.472519,0.736842
1170,12313,55540,4416,63582,0.064943,0.181466,0.736027,0.181466,0.263973,0.291149,0.123142,1.473627,0.737143
1171,12262,55591,4397,63601,0.064664,0.180714,0.736059,0.180714,0.263941,0.290184,0.122627,1.47369,0.737864
1172,12218,55635,4374,63624,0.064325,0.180066,0.736379,0.180066,0.263621,0.289372,0.122134,1.474332,0.738095
1173,12130,55723,4331,63667,0.063693,0.178769,0.736893,0.178769,0.263107,0.287734,0.12117,1.475361,0.738636
1174,12085,55768,4324,63674,0.06359,0.178106,0.736486,0.178106,0.263514,0.286843,0.120787,1.474546,0.73913
1175,12065,55788,4311,63687,0.063399,0.177811,0.736749,0.177811,0.263251,0.286481,0.120544,1.475072,0.739837
1176,12006,55847,4298,63700,0.063208,0.176941,0.736384,0.176941,0.263616,0.285324,0.120014,1.474341,0.74
1177,11993,55860,4296,63702,0.063178,0.17675,0.736264,0.17675,0.263736,0.285066,0.119903,1.474101,0.740741
1178,11909,55944,4246,63752,0.062443,0.175512,0.737171,0.175512,0.262829,0.283521,0.118917,1.475918,0.741135
1179,11793,56060,4204,63794,0.061825,0.173802,0.737201,0.173802,0.262799,0.281288,0.117754,1.475977,0.741935
1180,11734,56119,4169,63829,0.061311,0.172933,0.737848,0.172933,0.262152,0.280195,0.117062,1.477273,0.742424
1181,11708,56145,4161,63837,0.061193,0.172549,0.737791,0.172549,0.262209,0.279688,0.116812,1.477158,0.742574
1182,11673,56180,4152,63846,0.061061,0.172034,0.73763,0.172034,0.26237,0.278998,0.116488,1.476837,0.742857
1183,11612,56241,4111,63887,0.060458,0.171135,0.738536,0.171135,0.261464,0.277879,0.115737,1.47865,0.74359
1184,11529,56324,4081,63917,0.060016,0.169911,0.738565,0.169911,0.261435,0.276266,0.114905,1.478708,0.744186
1185,11511,56342,4067,63931,0.059811,0.169646,0.738927,0.169646,0.261073,0.275941,0.11467,1.479432,0.745098
1186,11494,56359,4045,63953,0.059487,0.169396,0.739687,0.169396,0.260313,0.275662,0.114383,1.480955,0.746269
1187,11414,56439,4011,63987,0.058987,0.168217,0.739968,0.168217,0.260032,0.274118,0.113544,1.481516,0.746479
1188,11370,56483,3992,64006,0.058708,0.167568,0.740138,0.167568,0.259862,0.273268,0.11308,1.481858,0.746667
1189,11334,56519,3978,64020,0.058502,0.167038,0.740204,0.167038,0.259796,0.272567,0.112712,1.481989,0.747475
1190,11313,56540,3968,64030,0.058355,0.166728,0.740331,0.166728,0.259669,0.272163,0.112484,1.482244,0.747706
1191,11246,56607,3928,64070,0.057766,0.165741,0.741136,0.165741,0.258864,0.2709,0.111696,1.483856,0.747748
1192,11182,56671,3894,64104,0.057266,0.164797,0.741709,0.164797,0.258291,0.269676,0.110975,1.485002,0.748227
1193,11078,56775,3845,64153,0.056546,0.163265,0.742344,0.163265,0.257656,0.267662,0.109848,1.486274,0.75
1194,10709,57144,3669,64329,0.053957,0.157826,0.744818,0.157826,0.255182,0.260461,0.105837,1.491229,0.751724
1195,10651,57202,3645,64353,0.053605,0.156972,0.745034,0.156972,0.254966,0.259309,0.105233,1.491659,0.751773
1196,10603,57250,3620,64378,0.053237,0.156264,0.745483,0.156264,0.254517,0.25837,0.104696,1.492558,0.752941
1197,10541,57312,3592,64406,0.052825,0.155351,0.745843,0.155351,0.254157,0.257141,0.104033,1.49328,0.753247
1198,10519,57334,3576,64422,0.05259,0.155026,0.746293,0.155026,0.253707,0.256724,0.103753,1.494181,0.753846
1199,10472,57381,3543,64455,0.052104,0.154334,0.747199,0.154334,0.252801,0.255826,0.103164,1.495996,0.754513
1200,10386,57467,3501,64497,0.051487,0.153066,0.747894,0.153066,0.252106,0.254123,0.102222,1.497386,0.754717
1201,10351,57502,3487,64511,0.051281,0.15255,0.748013,0.15255,0.251987,0.253418,0.101862,1.497624,0.754902
1202,10303,57550,3462,64536,0.050913,0.151843,0.748493,0.151843,0.251507,0.252469,0.101324,1.498585,0.755102
1203,10251,57602,3430,64568,0.050443,0.151077,0.749287,0.151077,0.250713,0.251453,0.100706,1.500176,0.755556
1204,10220,57633,3417,64581,0.050251,0.15062,0.749432,0.15062,0.250568,0.250828,0.100382,1.500465,0.755814
1205,10190,57663,3408,64590,0.050119,0.150178,0.749375,0.150178,0.250625,0.250212,0.100095,1.500351,0.756098
1206,10154,57699,3388,64610,0.049825,0.149647,0.749815,0.149647,0.250185,0.249499,0.099683,1.501233,0.756757
1207,10140,57713,3377,64621,0.049663,0.149441,0.750166,0.149441,0.249834,0.249232,0.099499,1.501936,0.757576
1208,10061,57792,3343,64655,0.049163,0.148276,0.750597,0.148276,0.249403,0.247634,0.098667,1.502798,0.758065
1209,10038,57815,3338,64660,0.04909,0.147937,0.750449,0.147937,0.249551,0.247153,0.098461,1.502501,0.758389
1210,9986,57867,3309,64689,0.048663,0.147171,0.751109,0.147171,0.248891,0.246118,0.097865,1.503824,0.758621
1211,9930,57923,3283,64715,0.048281,0.146346,0.751533,0.146346,0.248467,0.244986,0.097261,1.504671,0.758824
1212,9874,57979,3257,64741,0.047898,0.14552,0.751961,0.14552,0.248039,0.243851,0.096657,1.505529,0.759036
1213,9842,58011,3247,64751,0.047751,0.145049,0.751929,0.145049,0.248071,0.243186,0.096348,1.505465,0.759259
1214,9823,58030,3235,64763,0.047575,0.144769,0.752259,0.144769,0.247741,0.24281,0.09612,1.506126,0.759804
1215,9718,58135,3204,64794,0.047119,0.143221,0.752051,0.143221,0.247949,0.240619,0.095119,1.505709,0.76
1216,9669,58184,3171,64827,0.046634,0.142499,0.753037,0.142499,0.246963,0.239649,0.094515,1.507684,0.760331
1217,9626,58227,3160,64838,0.046472,0.141866,0.752855,0.141866,0.247145,0.238743,0.094118,1.507318,0.76087
1218,9596,58257,3147,64851,0.046281,0.141423,0.753041,0.141423,0.246959,0.238126,0.093801,1.507691,0.761364
1219,9573,58280,3123,64875,0.045928,0.141084,0.754017,0.141084,0.245983,0.237694,0.093455,1.509645,0.761905
1220,9527,58326,3108,64890,0.045707,0.140406,0.754017,0.140406,0.245983,0.236731,0.093006,1.509645,0.7625
1221,9488,58365,3096,64902,0.045531,0.139832,0.753973,0.139832,0.246027,0.235911,0.092631,1.509558,0.762712
1222,9473,58380,3090,64908,0.045443,0.139611,0.75404,0.139611,0.24596,0.2356,0.092476,1.509691,0.763158
1223,9462,58391,3084,64914,0.045354,0.139449,0.754185,0.139449,0.245815,0.235376,0.092351,1.509981,0.764045
1224,9430,58423,3075,64923,0.045222,0.138977,0.754098,0.138977,0.245902,0.2347,0.092049,1.509808,0.764706
1225,9364,58489,3057,64941,0.044957,0.138004,0.753885,0.138004,0.246115,0.233301,0.091431,1.50938,0.764925
1226,9239,58614,3020,64978,0.044413,0.136162,0.75365,0.136162,0.24635,0.230652,0.090239,1.508911,0.765432
1227,9211,58642,3009,64989,0.044251,0.135749,0.753764,0.135749,0.246236,0.230065,0.089951,1.509139,0.765625
1228,9195,58658,2994,65004,0.044031,0.135514,0.754369,0.135514,0.245631,0.229754,0.089723,1.510349,0.765823
1229,9139,58714,2971,65027,0.043692,0.134688,0.754666,0.134688,0.245334,0.228581,0.089142,1.510944,0.765957
1230,9109,58744,2961,65037,0.043545,0.134246,0.754681,0.134246,0.245319,0.227944,0.088847,1.510975,0.766234
1231,9023,58830,2921,65077,0.042957,0.132979,0.755442,0.132979,0.244558,0.226149,0.08792,1.512498,0.766667
1232,8985,58868,2899,65099,0.042634,0.132419,0.756059,0.132419,0.243941,0.225366,0.087478,1.513733,0.767442
1233,8924,58929,2873,65125,0.042251,0.13152,0.756464,0.13152,0.243536,0.22408,0.086838,1.514544,0.767677
1234,8890,58963,2861,65137,0.042075,0.131019,0.756531,0.131019,0.243469,0.223356,0.086499,1.514679,0.767742
1235,8839,59014,2842,65156,0.041795,0.130267,0.756699,0.130267,0.243301,0.22227,0.085984,1.515015,0.767857
1236,8817,59036,2830,65168,0.041619,0.129943,0.757019,0.129943,0.242981,0.221811,0.085734,1.515656,0.769231
1237,8681,59172,2783,65215,0.040928,0.127938,0.75724,0.127938,0.24276,0.218894,0.084387,1.516098,0.769841
1238,8633,59220,2767,65231,0.040692,0.127231,0.757281,0.127231,0.242719,0.217859,0.083915,1.51618,0.77027
1239,8610,59243,2754,65244,0.040501,0.126892,0.757656,0.126892,0.242344,0.217378,0.08365,1.516931,0.770492
1240,8592,59261,2748,65250,0.040413,0.126627,0.757672,0.126627,0.242328,0.216989,0.083474,1.516963,0.770833
1241,8564,59289,2739,65259,0.040281,0.126214,0.757675,0.126214,0.242325,0.216383,0.083201,1.516969,0.771429
1242,8407,59446,2671,65327,0.039281,0.1239,0.758891,0.1239,0.241109,0.213021,0.081545,1.519405,0.771739
1243,8368,59485,2662,65336,0.039148,0.123325,0.758658,0.123325,0.241342,0.212162,0.081192,1.518938,0.772277
1244,8330,59523,2645,65353,0.038898,0.122765,0.758998,0.122765,0.241002,0.211346,0.080787,1.519617,0.772727
1245,8252,59601,2607,65391,0.038339,0.121616,0.759923,0.121616,0.240077,0.209676,0.079933,1.521469,0.773585
1246,8214,59639,2601,65397,0.038251,0.121056,0.759501,0.121056,0.240499,0.208827,0.079609,1.520624,0.773973
1247,8162,59691,2579,65419,0.037928,0.120289,0.759892,0.120289,0.240108,0.2077,0.079065,1.521408,0.774194
1248,8036,59817,2497,65501,0.036722,0.118432,0.762936,0.118432,0.237064,0.205037,0.077533,1.527501,0.774648
1249,8021,59832,2488,65510,0.036589,0.118211,0.763251,0.118211,0.236749,0.204717,0.077357,1.528132,0.774775
1250,7967,59886,2473,65525,0.036369,0.117416,0.763123,0.117416,0.236877,0.203518,0.076849,1.527876,0.77551
1251,7884,59969,2447,65551,0.035986,0.116192,0.76314,0.116192,0.23686,0.201678,0.076047,1.527911,0.777027
1252,7835,60018,2420,65578,0.035589,0.11547,0.764018,0.11547,0.235982,0.20062,0.075487,1.529668,0.777778
1253,7696,60157,2348,65650,0.03453,0.113422,0.766229,0.113422,0.233771,0.197594,0.073934,1.534095,0.779412
1254,7664,60189,2338,65660,0.034383,0.11295,0.766247,0.11295,0.233753,0.196879,0.073625,1.534131,0.779661
1255,7626,60227,2324,65674,0.034177,0.11239,0.766432,0.11239,0.233568,0.196034,0.073242,1.534502,0.78
1256,7590,60263,2305,65693,0.033898,0.111859,0.767054,0.111859,0.232946,0.195246,0.072837,1.535747,0.780488
1257,7553,60300,2283,65715,0.033575,0.111314,0.767893,0.111314,0.232107,0.194442,0.072403,1.537428,0.78125
1258,7516,60337,2269,65729,0.033369,0.110769,0.768114,0.110769,0.231886,0.193617,0.072027,1.53787,0.781818
1259,7483,60370,2252,65746,0.033119,0.110283,0.76867,0.110283,0.23133,0.192891,0.071659,1.538982,0.782051
1260,7449,60404,2244,65754,0.033001,0.109781,0.768493,0.109781,0.231507,0.192118,0.07135,1.538628,0.782609
1261,7398,60455,2227,65771,0.032751,0.10903,0.768623,0.10903,0.231377,0.19097,0.07085,1.538889,0.783019
1262,7370,60483,2214,65784,0.03256,0.108617,0.76899,0.108617,0.23101,0.190348,0.070548,1.539623,0.783333
1263,7347,60506,2202,65796,0.032383,0.108278,0.7694,0.108278,0.2306,0.18984,0.07029,1.540444,0.783784
1264,7303,60550,2179,65819,0.032045,0.10763,0.770196,0.10763,0.229804,0.188867,0.069797,1.542038,0.784314
1265,7268,60585,2166,65832,0.031854,0.107114,0.770405,0.107114,0.229595,0.188078,0.069444,1.542456,0.784722
1266,7206,60647,2152,65846,0.031648,0.1062,0.770036,0.1062,0.229964,0.186657,0.068884,1.541718,0.784946
1267,7178,60675,2139,65859,0.031457,0.105788,0.77042,0.105788,0.22958,0.186031,0.068582,1.542486,0.785185
1268,7080,60773,2112,65886,0.03106,0.104343,0.770235,0.104343,0.229765,0.183789,0.067662,1.542116,0.785714
1269,7038,60815,2084,65914,0.030648,0.103724,0.771541,0.103724,0.228459,0.182865,0.067147,1.544731,0.786408
1270,6989,60864,2061,65937,0.03031,0.103002,0.772265,0.103002,0.227735,0.181761,0.066617,1.546181,0.786667
1271,6917,60936,2035,65963,0.029927,0.101941,0.772676,0.101941,0.227324,0.180118,0.065896,1.547004,0.786885
1272,6846,61007,2009,65989,0.029545,0.100895,0.773123,0.100895,0.226877,0.178495,0.065182,1.547897,0.786982
1273,6722,61131,1951,66047,0.028692,0.099067,0.775049,0.099067,0.224951,0.175679,0.063842,1.551754,0.787234
1274,6696,61157,1941,66057,0.028545,0.098684,0.775269,0.098684,0.224731,0.175082,0.063577,1.552195,0.787879
1275,6671,61182,1934,66064,0.028442,0.098315,0.775247,0.098315,0.224753,0.174501,0.063341,1.552151,0.788462
1276,6628,61225,1921,66077,0.028251,0.097682,0.775295,0.097682,0.224705,0.173503,0.062929,1.552247,0.788732
1277,6580,61273,1896,66102,0.027883,0.096974,0.77631,0.096974,0.22369,0.172412,0.062392,1.554278,0.789474
1278,6525,61328,1867,66131,0.027457,0.096164,0.777526,0.096164,0.222474,0.171159,0.061774,1.556714,0.789916
1279,6479,61374,1857,66141,0.02731,0.095486,0.777231,0.095486,0.222769,0.170077,0.061361,1.556123,0.790323
1280,6411,61442,1846,66152,0.027148,0.094484,0.776432,0.094484,0.223568,0.168467,0.06078,1.554523,0.790698
1281,6354,61499,1833,66165,0.026957,0.093644,0.776108,0.093644,0.223892,0.167123,0.060265,1.553875,0.791667
1282,6320,61533,1828,66170,0.026883,0.093143,0.77565,0.093143,0.22435,0.166314,0.059977,1.552958,0.792453
1283,6302,61551,1819,66179,0.026751,0.092877,0.776013,0.092877,0.223987,0.165899,0.059779,1.553684,0.792683
1284,6243,61610,1794,66204,0.026383,0.092008,0.776782,0.092008,0.223218,0.164528,0.05916,1.555225,0.793103
1285,6195,61658,1778,66220,0.026148,0.0913,0.776997,0.0913,0.223003,0.1634,0.058689,1.555655,0.794118
1286,6105,61748,1740,66258,0.025589,0.089974,0.778203,0.089974,0.221797,0.161299,0.057747,1.558068,0.794872
1287,6096,61757,1732,66266,0.025471,0.089841,0.778743,0.089841,0.221257,0.161097,0.057622,1.55915,0.795181
1288,6072,61781,1724,66274,0.025354,0.089488,0.778861,0.089488,0.221139,0.160531,0.057386,1.559386,0.795455
1289,5992,61861,1694,66304,0.024912,0.088309,0.779599,0.088309,0.220401,0.158647,0.056577,1.560865,0.795918
1290,5960,61893,1675,66323,0.024633,0.087837,0.780616,0.087837,0.219384,0.157906,0.056201,1.562899,0.8
1291,5628,62225,1525,66473,0.022427,0.082944,0.786803,0.082944,0.213197,0.150068,0.052653,1.575287,0.802817
1292,5572,62281,1503,66495,0.022104,0.082119,0.787562,0.082119,0.212438,0.148729,0.052079,1.576807,0.803191
1293,5483,62370,1475,66523,0.021692,0.080807,0.788014,0.080807,0.211986,0.146583,0.051218,1.577712,0.803279
1294,5457,62396,1472,66526,0.021648,0.080424,0.78756,0.080424,0.21244,0.145944,0.051004,1.576802,0.803571
1295,5437,62416,1468,66530,0.021589,0.080129,0.7874,0.080129,0.2126,0.145456,0.050828,1.576484,0.803922
1296,5389,62464,1458,66540,0.021442,0.079422,0.78706,0.079422,0.21294,0.144284,0.050401,1.575802,0.804348
1297,5375,62478,1453,66545,0.021368,0.079215,0.7872,0.079215,0.2128,0.143946,0.050261,1.576082,0.805556
1298,5364,62489,1450,66548,0.021324,0.079053,0.787203,0.079053,0.212797,0.143678,0.050158,1.576088,0.806452
1299,5314,62539,1423,66575,0.020927,0.078316,0.788778,0.078316,0.211222,0.142486,0.049591,1.579242,0.807018
1300,5272,62581,1405,66593,0.020662,0.077697,0.789576,0.077697,0.210424,0.141473,0.049149,1.58084,0.807692
1301,5231,62622,1400,66598,0.020589,0.077093,0.78887,0.077093,0.21113,0.14046,0.048811,1.579427,0.808219
1302,5205,62648,1389,66609,0.020427,0.07671,0.789354,0.07671,0.210646,0.139831,0.048538,1.580395,0.808824
1303,5175,62678,1377,66621,0.020251,0.076268,0.789835,0.076268,0.210165,0.139104,0.048229,1.581358,0.809524
1304,5156,62697,1369,66629,0.020133,0.075988,0.790192,0.075988,0.209808,0.138643,0.048031,1.582072,0.810345
1305,5110,62743,1346,66652,0.019795,0.07531,0.791512,0.07531,0.208488,0.137534,0.047523,1.584715,0.810811
1306,5065,62788,1337,66661,0.019662,0.074647,0.791159,0.074647,0.208841,0.136422,0.047125,1.584009,0.8125
1307,4971,62882,1313,66685,0.019309,0.073261,0.791057,0.073261,0.208943,0.134103,0.046257,1.583804,0.813953
1308,4866,62987,1286,66712,0.018912,0.071714,0.790962,0.071714,0.209038,0.131505,0.045285,1.583615,0.814815
1309,4858,62995,1281,66717,0.018839,0.071596,0.791334,0.071596,0.208666,0.131311,0.045189,1.584359,0.816327
1310,4813,63040,1269,66729,0.018662,0.070933,0.791352,0.070933,0.208648,0.130195,0.04477,1.584394,0.816901
1311,4781,63072,1257,66741,0.018486,0.070461,0.791818,0.070461,0.208182,0.129407,0.044446,1.585329,0.818182
1312,4728,63125,1247,66751,0.018339,0.06968,0.791297,0.06968,0.208703,0.128081,0.043982,1.584285,0.819444
1313,4666,63187,1228,66770,0.018059,0.068766,0.791653,0.068766,0.208347,0.126541,0.043386,1.584997,0.82
1314,4642,63211,1222,66776,0.017971,0.068413,0.79161,0.068413,0.20839,0.125941,0.043165,1.584911,0.820513
1315,4617,63236,1212,66786,0.017824,0.068044,0.792074,0.068044,0.207926,0.125322,0.042907,1.585841,0.821053
1316,4565,63288,1204,66794,0.017706,0.067278,0.791298,0.067278,0.208702,0.124012,0.042466,1.584288,0.821429
1317,4514,63339,1181,66817,0.017368,0.066526,0.792625,0.066526,0.207375,0.12275,0.041921,1.586944,0.821918
1318,4449,63404,1167,66831,0.017162,0.065568,0.792201,0.065568,0.207799,0.121112,0.041339,1.586095,0.822222
1319,4436,63417,1165,66833,0.017133,0.065377,0.792001,0.065377,0.207999,0.120783,0.041229,1.585695,0.823529
1320,4424,63429,1161,66837,0.017074,0.0652,0.792122,0.0652,0.207878,0.120483,0.041111,1.585936,0.825
1321,4322,63531,1123,66875,0.016515,0.063697,0.793756,0.063697,0.206244,0.11793,0.040081,1.589208,0.825397
1322,4294,63559,1114,66884,0.016383,0.063284,0.794009,0.063284,0.205991,0.117225,0.039808,1.589715,0.826087
1323,4222,63631,1087,66911,0.015986,0.062223,0.795253,0.062223,0.204747,0.115415,0.03908,1.592206,0.826667
1324,4199,63654,1075,66923,0.015809,0.061884,0.79617,0.061884,0.20383,0.114841,0.038822,1.594041,0.826923
1325,4187,63666,1069,66929,0.015721,0.061707,0.796613,0.061707,0.203387,0.114541,0.038689,1.594929,0.82716
1326,4154,63699,1058,66940,0.015559,0.061221,0.797007,0.061221,0.202993,0.113707,0.038366,1.595717,0.827273
1327,4110,63743,1042,66956,0.015324,0.060572,0.797748,0.060572,0.202252,0.112595,0.037924,1.597202,0.827586
1328,3989,63864,1017,66981,0.014956,0.058789,0.796844,0.058789,0.203156,0.109499,0.036849,1.59539,0.828283
1329,3946,63907,999,66999,0.014692,0.058155,0.797978,0.058155,0.202022,0.10841,0.0364,1.597661,0.828571
1330,3836,64017,968,67030,0.014236,0.056534,0.798501,0.056534,0.201499,0.105592,0.035362,1.598709,0.82906
1331,3803,64050,953,67045,0.014015,0.056048,0.799622,0.056048,0.200378,0.104753,0.035009,1.600952,0.829268
1332,3747,64106,934,67064,0.013736,0.055222,0.80047,0.055222,0.19953,0.103317,0.034457,1.602651,0.829787
1333,3689,64164,907,67091,0.013339,0.054368,0.802654,0.054368,0.197346,0.101837,0.033831,1.607024,0.830769
1334,3668,64185,898,67100,0.013206,0.054058,0.803329,0.054058,0.196671,0.101299,0.03361,1.608375,0.831169
1335,3649,64204,882,67116,0.012971,0.053778,0.805341,0.053778,0.194659,0.100823,0.033353,1.612403,0.833333
1336,3488,64365,831,67167,0.012221,0.051405,0.807594,0.051405,0.192406,0.096658,0.031792,1.616915,0.834437
1337,3429,64424,811,67187,0.011927,0.050536,0.808726,0.050536,0.191274,0.095127,0.031211,1.619181,0.837209
1338,3382,64471,797,67201,0.011721,0.049843,0.809285,0.049843,0.190715,0.093903,0.030762,1.620298,0.837838
1339,3293,64560,768,67230,0.011294,0.048531,0.810884,0.048531,0.189116,0.091582,0.029893,1.623501,0.838235
1340,3270,64583,759,67239,0.011162,0.048192,0.811616,0.048192,0.188384,0.090982,0.029657,1.624966,0.839286
1341,3242,64611,753,67245,0.011074,0.04778,0.811514,0.04778,0.188486,0.090246,0.029407,1.624763,0.84058
1342,3163,64690,740,67258,0.010883,0.046615,0.810402,0.046615,0.189598,0.08816,0.02873,1.622536,0.840909
1343,3127,64726,734,67264,0.010794,0.046085,0.809894,0.046085,0.190106,0.087208,0.028421,1.621518,0.841727
1344,3069,64784,721,67277,0.010603,0.04523,0.809763,0.04523,0.190237,0.085675,0.027898,1.621256,0.842105
1345,2988,64865,696,67302,0.010236,0.044036,0.811075,0.044036,0.188925,0.083537,0.027118,1.623883,0.84375
1346,2941,64912,676,67322,0.009941,0.043344,0.813105,0.043344,0.186895,0.0823,0.026625,1.627947,0.846154
1347,2932,64921,666,67332,0.009794,0.043211,0.814897,0.043211,0.185103,0.08207,0.026485,1.631536,0.848485
1348,2872,64981,641,67357,0.009427,0.042327,0.817535,0.042327,0.182465,0.080487,0.025859,1.636817,0.849057
1349,2858,64995,633,67365,0.009309,0.04212,0.818677,0.04212,0.181323,0.080119,0.025697,1.639103,0.85
1350,2847,65006,624,67374,0.009177,0.041958,0.820225,0.041958,0.179775,0.079833,0.02555,1.642202,0.851064
1351,2832,65021,621,67377,0.009133,0.041737,0.820156,0.041737,0.179844,0.079432,0.025418,1.642065,0.851852
1352,2820,65033,615,67383,0.009044,0.04156,0.820961,0.04156,0.179039,0.079116,0.025285,1.643676,0.852459
1353,2792,65061,604,67394,0.008883,0.041148,0.822144,0.041148,0.177856,0.078373,0.024998,1.646044,0.852941
1354,2771,65082,588,67410,0.008647,0.040838,0.824948,0.040838,0.175052,0.077824,0.024726,1.651659,0.853333
1355,2740,65113,579,67419,0.008515,0.040381,0.82555,0.040381,0.17445,0.076997,0.024431,1.652864,0.853659
1356,2725,65128,575,67423,0.008456,0.04016,0.825758,0.04016,0.174242,0.076596,0.024291,1.65328,0.854167
1357,2683,65170,558,67440,0.008206,0.039541,0.827831,0.039541,0.172169,0.075478,0.023857,1.657431,0.857143
1358,2672,65181,558,67440,0.008206,0.039379,0.827245,0.039379,0.172755,0.07518,0.023776,1.656257,0.859649
1359,2625,65228,544,67454,0.008,0.038687,0.828337,0.038687,0.171663,0.073921,0.023327,1.658444,0.859813
1360,2587,65266,539,67459,0.007927,0.038127,0.827575,0.038127,0.172425,0.072895,0.023011,1.656919,0.86
1361,2571,65282,536,67462,0.007883,0.037891,0.827486,0.037891,0.172514,0.072463,0.022871,1.656741,0.860465
1362,2553,65300,532,67466,0.007824,0.037625,0.827553,0.037625,0.172447,0.071978,0.022709,1.656874,0.861111
1363,2520,65333,522,67476,0.007677,0.037139,0.828402,0.037139,0.171598,0.071091,0.022392,1.658575,0.861538
1364,2496,65357,516,67482,0.007588,0.036785,0.828685,0.036785,0.171315,0.070444,0.022171,1.659141,0.862069
1365,2486,65367,510,67488,0.0075,0.036638,0.829773,0.036638,0.170227,0.070177,0.022054,1.661319,0.862745
1366,2470,65383,507,67491,0.007456,0.036402,0.829694,0.036402,0.170306,0.069744,0.021914,1.661162,0.863636
1367,2400,65453,491,67507,0.007221,0.035371,0.830163,0.035371,0.169837,0.06785,0.021281,1.662099,0.864865
1368,2387,65466,486,67512,0.007147,0.035179,0.830839,0.035179,0.169161,0.0675,0.021148,1.663453,0.866667
1369,2305,65548,464,67534,0.006824,0.03397,0.83243,0.03397,0.16757,0.065277,0.020383,1.66664,0.867647
1370,2248,65605,442,67556,0.0065,0.03313,0.835688,0.03313,0.164312,0.063734,0.019801,1.673161,0.868852
1371,2231,65622,435,67563,0.006397,0.03288,0.836834,0.03288,0.163166,0.063274,0.019624,1.675457,0.869048
1372,2194,65659,421,67577,0.006191,0.032335,0.839006,0.032335,0.160994,0.062269,0.019249,1.679804,0.869565
1373,2189,65664,419,67579,0.006162,0.032261,0.83934,0.032261,0.16066,0.062134,0.019198,1.680475,0.87037
1374,2166,65687,411,67587,0.006044,0.031922,0.840512,0.031922,0.159488,0.061508,0.018969,1.682821,0.870968
1375,2122,65731,403,67595,0.005927,0.031273,0.840396,0.031273,0.159604,0.060303,0.018587,1.682588,0.87234
1376,2103,65750,399,67599,0.005868,0.030993,0.840528,0.030993,0.159472,0.059783,0.018417,1.682851,0.872727
1377,2069,65784,388,67610,0.005706,0.030492,0.842084,0.030492,0.157916,0.058854,0.018086,1.685967,0.875
1378,1968,65885,343,67655,0.005044,0.029004,0.851579,0.029004,0.148421,0.056097,0.017011,1.704979,0.876712
1379,1937,65916,337,67661,0.004956,0.028547,0.851803,0.028547,0.148197,0.055243,0.016739,1.705426,0.877551
1380,1910,65943,333,67665,0.004897,0.028149,0.851538,0.028149,0.148462,0.054497,0.016511,1.704896,0.878049
1381,1877,65976,333,67665,0.004897,0.027663,0.849321,0.027663,0.150679,0.05358,0.016268,1.700458,0.878788
1382,1845,66008,331,67667,0.004868,0.027191,0.847886,0.027191,0.152114,0.052692,0.016018,1.697584,0.87931
1383,1821,66032,328,67670,0.004824,0.026837,0.847371,0.026837,0.152629,0.052027,0.015819,1.696553,0.88
1384,1774,66079,320,67678,0.004706,0.026145,0.847182,0.026145,0.152818,0.050724,0.015414,1.696175,0.880342
1385,1732,66121,314,67684,0.004618,0.025526,0.84653,0.025526,0.15347,0.049557,0.015061,1.694869,0.882353
1386,1731,66122,313,67685,0.004603,0.025511,0.846869,0.025511,0.153131,0.04953,0.015046,1.695548,0.883721
1387,1719,66134,308,67690,0.00453,0.025334,0.848051,0.025334,0.151949,0.049199,0.014921,1.697915,0.884615
1388,1661,66192,290,67708,0.004265,0.024479,0.851358,0.024479,0.148642,0.04759,0.014361,1.704536,0.886792
1389,1643,66210,286,67712,0.004206,0.024214,0.851737,0.024214,0.148263,0.04709,0.014199,1.705293,0.888889
1390,1620,66233,275,67723,0.004044,0.023875,0.854881,0.023875,0.145119,0.046453,0.013949,1.711589,0.891892
1391,1599,66254,269,67729,0.003956,0.023566,0.855996,0.023566,0.144004,0.045869,0.01375,1.713821,0.894737
1392,1580,66273,265,67733,0.003897,0.023286,0.856369,0.023286,0.143631,0.045338,0.013581,1.714567,0.895522
1393,1555,66298,257,67741,0.00378,0.022917,0.858168,0.022917,0.141832,0.044642,0.013338,1.718169,0.895833
1394,1538,66315,257,67741,0.00378,0.022667,0.856825,0.022667,0.143175,0.044165,0.013213,1.71548,0.9
1395,1486,66367,249,67749,0.003662,0.0219,0.856484,0.0219,0.143516,0.042709,0.012771,1.714799,0.901408
1396,1460,66393,241,67757,0.003544,0.021517,0.858319,0.021517,0.141681,0.041982,0.012521,1.718471,0.903226
1397,1428,66425,233,67765,0.003427,0.021045,0.859723,0.021045,0.140277,0.041085,0.012227,1.721283,0.903846
1398,1400,66453,228,67770,0.003353,0.020633,0.859951,0.020633,0.140049,0.040299,0.011984,1.721739,0.90625
1399,1368,66485,224,67774,0.003294,0.020161,0.859296,0.020161,0.140704,0.039398,0.011719,1.720429,0.906977
1400,1347,66506,218,67780,0.003206,0.019852,0.860703,0.019852,0.139297,0.038808,0.01152,1.723245,0.909091
1401,1321,66532,207,67791,0.003044,0.019469,0.864529,0.019469,0.135471,0.03808,0.011248,1.730905,0.911111
1402,1289,66564,200,67798,0.002941,0.018997,0.865682,0.018997,0.134318,0.037178,0.010961,1.733213,0.911765
1403,1232,66621,194,67804,0.002853,0.018157,0.863955,0.018157,0.136045,0.035566,0.010497,1.729756,0.913043
1404,1224,66629,193,67805,0.002838,0.018039,0.863797,0.018039,0.136203,0.03534,0.010431,1.729439,0.916667
1405,1170,66683,181,67817,0.002662,0.017243,0.866025,0.017243,0.133975,0.033813,0.009945,1.733901,0.918367
1406,1155,66698,175,67823,0.002574,0.017022,0.868421,0.017022,0.131579,0.03339,0.00979,1.738698,0.918919
1407,1124,66729,171,67827,0.002515,0.016565,0.867954,0.016565,0.132046,0.03251,0.009533,1.737762,0.92
1408,1073,66780,169,67829,0.002485,0.015814,0.863929,0.015814,0.136071,0.031059,0.009142,1.729704,0.921053
1409,1043,66810,167,67831,0.002456,0.015371,0.861983,0.015371,0.138017,0.030204,0.008907,1.725809,0.923077
1410,1021,66832,162,67836,0.002382,0.015047,0.86306,0.015047,0.13694,0.029579,0.008708,1.727964,0.925
1411,1003,66850,150,67848,0.002206,0.014782,0.869905,0.014782,0.130095,0.02907,0.008487,1.741668,0.930233
1412,953,66900,146,67852,0.002147,0.014045,0.867152,0.014045,0.132848,0.027642,0.00809,1.736157,0.934066
1413,913,66940,142,67856,0.002088,0.013456,0.865403,0.013456,0.134597,0.026499,0.007766,1.732655,0.935484
1414,859,66994,130,67868,0.001912,0.01266,0.868554,0.01266,0.131446,0.024956,0.00728,1.738964,0.9375
1415,844,67009,127,67871,0.001868,0.012439,0.869207,0.012439,0.130793,0.024526,0.007148,1.740271,0.938272
1416,810,67043,122,67876,0.001794,0.011938,0.869099,0.011938,0.130901,0.023552,0.00686,1.740055,0.94
1417,770,67083,113,67885,0.001662,0.011348,0.872027,0.011348,0.127973,0.022405,0.0065,1.745918,0.945455
1418,747,67106,111,67887,0.001632,0.011009,0.870629,0.011009,0.129371,0.021743,0.006316,1.743119,0.948718
1419,703,67150,102,67896,0.0015,0.010361,0.873292,0.010361,0.126708,0.020478,0.005926,1.74845,0.95
1420,696,67157,94,67904,0.001382,0.010257,0.881013,0.010257,0.118987,0.020279,0.005815,1.763908,0.953488
1421,677,67176,91,67907,0.001338,0.009977,0.88151,0.009977,0.11849,0.019732,0.005653,1.764905,0.953846
1422,649,67204,84,67914,0.001235,0.009565,0.885402,0.009565,0.114598,0.018925,0.005396,1.772697,0.955556
1423,627,67226,81,67917,0.001191,0.009241,0.885593,0.009241,0.114407,0.01829,0.005212,1.773079,0.956522
1424,585,67268,75,67923,0.001103,0.008622,0.886364,0.008622,0.113636,0.017077,0.004858,1.774621,0.961538
1425,575,67278,71,67927,0.001044,0.008474,0.890093,0.008474,0.109907,0.016789,0.004755,1.782088,0.964286
1426,544,67309,68,67930,0.001,0.008017,0.888889,0.008017,0.111111,0.015891,0.004505,1.779677,0.968254
1427,510,67343,65,67933,0.000956,0.007516,0.886957,0.007516,0.113043,0.014906,0.004233,1.775808,0.970588
1428,498,67355,61,67937,0.000897,0.007339,0.890877,0.007339,0.109123,0.014559,0.004115,1.783657,0.975
1429,482,67371,57,67941,0.000838,0.007104,0.894249,0.007104,0.105751,0.014095,0.003968,1.790408,0.978723
1430,463,67390,53,67945,0.000779,0.006824,0.897287,0.006824,0.102713,0.013544,0.003798,1.796491,1
1431,0,67853,0,67998,0,0,?,0,?,?,0,?,1.00001