@relation ThresholdCurve

@attribute Instance_number numeric
@attribute 'True Positives' numeric
@attribute 'False Negatives' numeric
@attribute 'False Positives' numeric
@attribute 'True Negatives' numeric
@attribute 'False Positive Rate' numeric
@attribute 'True Positive Rate' numeric
@attribute Precision numeric
@attribute Recall numeric
@attribute Fallout numeric
@attribute FMeasure numeric
@attribute 'Sample Size' numeric
@attribute Lift numeric
@attribute Threshold numeric

@data
0,67853,0,67998,0,1,1,0.499466,1,0.500534,0.666192,1,1,0
1,67849,4,67960,38,0.999441,0.999941,0.499591,0.999941,0.500409,0.66629,0.999691,1.00025,0.071429
2,67846,7,67951,47,0.999309,0.999897,0.499613,0.999897,0.500387,0.6663,0.999603,1.000294,0.076923
3,67844,9,67950,48,0.999294,0.999867,0.49961,0.999867,0.50039,0.66629,0.99958,1.000287,0.1
4,67843,10,67939,59,0.999132,0.999853,0.499646,0.999853,0.500354,0.66632,0.999492,1.000361,0.102564
5,67842,11,67929,69,0.998985,0.999838,0.49968,0.999838,0.50032,0.666346,0.999411,1.000427,0.142857
6,67837,16,67925,73,0.998926,0.999764,0.499676,0.999764,0.500324,0.666326,0.999345,1.00042,0.148148
7,67831,22,67908,90,0.998676,0.999676,0.499716,0.999676,0.500284,0.666342,0.999176,1.000501,0.166667
8,67830,23,67906,92,0.998647,0.999661,0.49972,0.999661,0.50028,0.666342,0.999153,1.000508,0.183333
9,67821,32,67885,113,0.998338,0.999528,0.499764,0.999528,0.500236,0.666352,0.998933,1.000596,0.185185
10,67811,42,67872,126,0.998147,0.999381,0.499775,0.999381,0.500225,0.666329,0.998763,1.000618,0.188034
11,67798,55,67827,171,0.997485,0.999189,0.499893,0.999189,0.500107,0.666391,0.998336,1.000854,0.189189
12,67790,63,67807,191,0.997191,0.999072,0.499937,0.999072,0.500063,0.666405,0.99813,1.000943,0.190476
13,67785,68,67805,193,0.997162,0.998998,0.499926,0.998998,0.500074,0.666378,0.998079,1.000921,0.193548
14,67776,77,67785,213,0.996868,0.998865,0.499967,0.998865,0.500033,0.666385,0.997865,1.001002,0.196078
15,67771,82,67766,232,0.996588,0.998792,0.500018,0.998792,0.499982,0.666414,0.997689,1.001105,0.196262
16,67759,94,67718,280,0.995882,0.998615,0.500151,0.998615,0.499849,0.666493,0.997247,1.001371,0.2
17,67757,96,67717,281,0.995868,0.998585,0.500148,0.998585,0.499852,0.666483,0.997225,1.001364,0.205021
18,67731,122,67642,356,0.994765,0.998202,0.500329,0.998202,0.499671,0.666558,0.996481,1.001727,0.208333
19,67721,132,67603,395,0.994191,0.998055,0.500436,0.998055,0.499564,0.666621,0.996121,1.001941,0.214286
20,67715,138,67594,404,0.994059,0.997966,0.500447,0.997966,0.499553,0.666611,0.99601,1.001964,0.217391
21,67700,153,67544,454,0.993323,0.997745,0.500577,0.997745,0.499423,0.666677,0.995532,1.002223,0.22449
22,67696,157,67522,476,0.993,0.997686,0.500643,0.997686,0.499357,0.666722,0.99534,1.002357,0.225
23,67690,163,67513,485,0.992867,0.997598,0.500655,0.997598,0.499345,0.666713,0.99523,1.002379,0.226087
24,67681,172,67462,536,0.992117,0.997465,0.50081,0.997465,0.49919,0.666821,0.994788,1.002691,0.230769
25,67658,195,67417,581,0.991456,0.997126,0.500892,0.997126,0.499108,0.666818,0.994288,1.002855,0.234177
26,67635,218,67353,645,0.990514,0.996787,0.501045,0.996787,0.498955,0.666877,0.993647,1.00316,0.238095
27,67630,223,67330,668,0.990176,0.996713,0.501111,0.996713,0.498889,0.66692,0.993441,1.003294,0.23913
28,67616,237,67320,678,0.990029,0.996507,0.501097,0.996507,0.498903,0.666861,0.993265,1.003264,0.24
29,67604,249,67292,706,0.989617,0.99633,0.501156,0.99633,0.498844,0.666874,0.99297,1.003384,0.243243
30,67592,261,67273,725,0.989338,0.996153,0.501183,0.996153,0.498817,0.666857,0.992742,1.003436,0.243478
31,67580,273,67230,768,0.988706,0.995977,0.501298,0.995977,0.498702,0.66692,0.992337,1.003668,0.245763
32,67554,299,67204,794,0.988323,0.995593,0.501299,0.995593,0.498701,0.666834,0.991954,1.003669,0.25
33,67504,349,67116,882,0.987029,0.994857,0.501441,0.994857,0.498559,0.666795,0.990939,1.003954,0.254545
34,67476,377,67070,928,0.986353,0.994444,0.501509,0.994444,0.498491,0.666762,0.990394,1.004089,0.254717
35,67463,390,67034,964,0.985823,0.994252,0.501595,0.994252,0.498405,0.666795,0.990033,1.004262,0.254902
36,67456,397,67017,981,0.985573,0.994149,0.501632,0.994149,0.498368,0.666805,0.989857,1.004337,0.256757
37,67428,425,66938,1060,0.984411,0.993736,0.501823,0.993736,0.498177,0.666881,0.989069,1.004719,0.257813
38,67382,471,66818,1180,0.982647,0.993059,0.502101,0.993059,0.497899,0.666974,0.987847,1.005276,0.259259
39,67379,474,66803,1195,0.982426,0.993014,0.502146,0.993014,0.497854,0.667003,0.987714,1.005366,0.262295
40,67366,487,66768,1230,0.981911,0.992823,0.502229,0.992823,0.497771,0.667033,0.987361,1.005531,0.263158
41,67326,527,66701,1297,0.980926,0.992233,0.502332,0.992233,0.497668,0.66699,0.986574,1.005737,0.263636
42,67295,558,66662,1336,0.980352,0.991776,0.502363,0.991776,0.497637,0.666914,0.986058,1.005799,0.263889
43,67262,591,66586,1412,0.979235,0.99129,0.502525,0.99129,0.497475,0.666948,0.985256,1.006124,0.266272
44,67232,621,66520,1478,0.978264,0.990848,0.502662,0.990848,0.497338,0.666968,0.984549,1.006397,0.268908
45,67209,644,66477,1521,0.977632,0.990509,0.502738,0.990509,0.497262,0.666958,0.984063,1.00655,0.271845
46,67192,661,66442,1556,0.977117,0.990258,0.502806,0.990258,0.497194,0.666961,0.983681,1.006687,0.272059
47,67164,689,66401,1597,0.976514,0.989846,0.502856,0.989846,0.497144,0.666912,0.983173,1.006787,0.272727
48,67158,695,66385,1613,0.976279,0.989757,0.502894,0.989757,0.497106,0.666925,0.983011,1.006863,0.280702
49,67112,741,66304,1694,0.975088,0.989079,0.503028,0.989079,0.496972,0.666889,0.982076,1.007131,0.283333
50,67088,765,66248,1750,0.974264,0.988726,0.50315,0.988726,0.49685,0.666915,0.981487,1.007375,0.284444
51,67001,852,66102,1896,0.972117,0.987443,0.503377,0.987443,0.496623,0.666823,0.979772,1.00783,0.285714
52,66984,869,66071,1927,0.971661,0.987193,0.503431,0.987193,0.496569,0.666813,0.979419,1.007938,0.286822
53,66941,912,66023,1975,0.970955,0.986559,0.503452,0.986559,0.496548,0.666687,0.978749,1.00798,0.28972
54,66901,952,65932,2066,0.969617,0.98597,0.503647,0.98597,0.496353,0.666723,0.977784,1.008371,0.292035
55,66845,1008,65810,2188,0.967823,0.985144,0.503901,0.985144,0.496099,0.666756,0.976474,1.008879,0.293785
56,66812,1041,65760,2238,0.967087,0.984658,0.503968,0.984658,0.496032,0.666703,0.975863,1.009012,0.294118
57,66758,1095,65653,2345,0.965514,0.983862,0.504173,0.983862,0.495827,0.6667,0.974678,1.009423,0.296296
58,66738,1115,65629,2369,0.965161,0.983567,0.504189,0.983567,0.495811,0.666647,0.974354,1.009456,0.296774
59,66718,1135,65566,2432,0.964234,0.983273,0.504354,0.983273,0.495646,0.666723,0.973743,1.009786,0.297297
60,66712,1141,65559,2439,0.964131,0.983184,0.504358,0.983184,0.495642,0.666707,0.973648,1.009795,0.29776
61,66595,1258,65304,2694,0.960381,0.98146,0.504894,0.98146,0.495106,0.666777,0.970909,1.010867,0.297872
62,66574,1279,65275,2723,0.959955,0.98115,0.504926,0.98115,0.495074,0.666733,0.970541,1.010931,0.298246
63,66550,1303,65200,2798,0.958852,0.980797,0.505123,0.980797,0.494877,0.666824,0.969813,1.011326,0.298507
64,66540,1313,65187,2811,0.958661,0.980649,0.505136,0.980649,0.494864,0.6668,0.969643,1.011351,0.299145
65,66520,1333,65149,2849,0.958102,0.980355,0.505206,0.980355,0.494794,0.666794,0.969216,1.011492,0.300885
66,66504,1349,65108,2890,0.957499,0.980119,0.505303,0.980119,0.494697,0.666824,0.968797,1.011687,0.301724
67,66494,1359,65079,2919,0.957072,0.979971,0.505377,0.979971,0.494623,0.666854,0.96851,1.011834,0.302128
68,66430,1423,64999,2999,0.955896,0.979028,0.505444,0.979028,0.494556,0.666693,0.96745,1.011968,0.302326
69,66385,1468,64924,3074,0.954793,0.978365,0.505563,0.978365,0.494437,0.666643,0.966566,1.012207,0.303571
70,66364,1489,64896,3102,0.954381,0.978056,0.505592,0.978056,0.494408,0.666596,0.966206,1.012264,0.305785
71,66336,1517,64860,3138,0.953852,0.977643,0.505625,0.977643,0.494375,0.666529,0.965735,1.012331,0.30662
72,66284,1569,64774,3224,0.952587,0.976876,0.505761,0.976876,0.494239,0.666469,0.964719,1.012602,0.307692
73,66262,1591,64733,3265,0.951984,0.976552,0.505836,0.976552,0.494164,0.666459,0.964255,1.012753,0.308943
74,66235,1618,64698,3300,0.951469,0.976154,0.505869,0.976154,0.494131,0.666395,0.963799,1.01282,0.309353
75,66203,1650,64644,3354,0.950675,0.975683,0.505957,0.975683,0.494043,0.666361,0.963166,1.012996,0.310811
76,66184,1669,64601,3397,0.950043,0.975403,0.506052,0.975403,0.493948,0.666378,0.962709,1.013185,0.313953
77,66158,1695,64544,3454,0.949204,0.97502,0.506174,0.97502,0.493826,0.666395,0.962098,1.01343,0.314815
78,66124,1729,64485,3513,0.948337,0.974518,0.506274,0.974518,0.493726,0.666364,0.961414,1.013631,0.315136
79,66053,1800,64358,3640,0.946469,0.973472,0.506499,0.973472,0.493501,0.666314,0.959956,1.01408,0.315436
80,66030,1823,64320,3678,0.94591,0.973133,0.506559,0.973133,0.493441,0.666287,0.959507,1.014201,0.315789
81,66010,1843,64255,3743,0.944954,0.972838,0.506736,0.972838,0.493264,0.666371,0.958881,1.014555,0.316239
82,65987,1866,64215,3783,0.944366,0.972499,0.506805,0.972499,0.493195,0.66635,0.958418,1.014693,0.317308
83,65971,1882,64186,3812,0.94394,0.972264,0.506857,0.972264,0.493143,0.66634,0.958086,1.014797,0.317757
84,65945,1908,64149,3849,0.943395,0.97188,0.506903,0.97188,0.493097,0.666289,0.957623,1.014889,0.317857
85,65889,1964,64085,3913,0.942454,0.971055,0.50694,0.971055,0.49306,0.666127,0.956739,1.014963,0.318182
86,65809,2044,63963,4035,0.94066,0.969876,0.507112,0.969876,0.492888,0.665999,0.955252,1.015309,0.318681
87,65788,2065,63935,4063,0.940248,0.969567,0.507142,0.969567,0.492858,0.665951,0.954892,1.015368,0.321429
88,65744,2109,63860,4138,0.939145,0.968918,0.507268,0.968918,0.492732,0.665907,0.954016,1.015621,0.321678
89,65725,2128,63820,4178,0.938557,0.968638,0.507353,0.968638,0.492647,0.665914,0.953581,1.01579,0.321739
90,65687,2166,63738,4260,0.937351,0.968078,0.507529,0.968078,0.492471,0.665933,0.952698,1.016143,0.322034
91,65681,2172,63718,4280,0.937057,0.96799,0.507585,0.96799,0.492415,0.66596,0.952507,1.016255,0.323077
92,65653,2200,63676,4322,0.936439,0.967577,0.507643,0.967577,0.492357,0.665913,0.951992,1.016371,0.323353
93,65612,2241,63614,4384,0.935528,0.966973,0.507731,0.966973,0.492269,0.665845,0.951233,1.016546,0.323529
94,65598,2255,63598,4400,0.935292,0.966766,0.50774,0.966766,0.49226,0.665804,0.951013,1.016565,0.323741
95,65573,2280,63542,4456,0.934469,0.966398,0.507865,0.966398,0.492135,0.665824,0.950416,1.016815,0.323944
96,65552,2301,63493,4505,0.933748,0.966088,0.507978,0.966088,0.492022,0.665847,0.949901,1.017041,0.324074
97,65527,2326,63461,4537,0.933277,0.96572,0.508008,0.96572,0.491992,0.665786,0.949481,1.017103,0.324561
98,65499,2354,63418,4580,0.932645,0.965307,0.508071,0.965307,0.491929,0.665742,0.948959,1.017228,0.324786
99,65450,2403,63330,4668,0.931351,0.964585,0.508231,0.964585,0.491769,0.665707,0.94795,1.017548,0.325
100,65441,2412,63304,4694,0.930969,0.964453,0.508299,0.964453,0.491701,0.665734,0.947693,1.017685,0.325581
101,65432,2421,63295,4703,0.930836,0.96432,0.508301,0.96432,0.491699,0.665704,0.94756,1.017687,0.325758
102,65361,2492,63167,4831,0.928954,0.963274,0.508535,0.963274,0.491465,0.665655,0.946095,1.018157,0.326531
103,65334,2519,63121,4877,0.928277,0.962876,0.508614,0.962876,0.491386,0.665627,0.945558,1.018315,0.326829
104,65271,2582,63064,4934,0.927439,0.961947,0.508599,0.961947,0.491401,0.665392,0.944675,1.018284,0.326923
105,65263,2590,63054,4944,0.927292,0.961829,0.508608,0.961829,0.491392,0.665372,0.944542,1.018302,0.327731
106,65242,2611,63031,4967,0.926954,0.96152,0.508618,0.96152,0.491382,0.665307,0.944218,1.018324,0.328
107,65223,2630,62990,5008,0.926351,0.96124,0.508708,0.96124,0.491292,0.665317,0.943777,1.018503,0.328829
108,65139,2714,62833,5165,0.924042,0.960002,0.50901,0.960002,0.49099,0.665278,0.942003,1.019107,0.330097
109,65123,2730,62807,5191,0.92366,0.959766,0.509052,0.959766,0.490948,0.665257,0.941693,1.019191,0.330189
110,65081,2772,62734,5264,0.922586,0.959147,0.509181,0.959147,0.490819,0.665219,0.940847,1.019451,0.330645
111,65067,2786,62692,5306,0.921968,0.958941,0.509295,0.958941,0.490705,0.665266,0.940435,1.019678,0.330769
112,65045,2808,62639,5359,0.921189,0.958616,0.509422,0.958616,0.490578,0.665296,0.939883,1.019932,0.332696
113,64944,2909,62468,5530,0.918674,0.957128,0.509717,0.957128,0.490283,0.665188,0.93788,1.020522,0.333333
114,64763,3090,62152,5846,0.914027,0.95446,0.510286,0.95446,0.489714,0.665027,0.934222,1.021663,0.336066
115,64734,3119,62103,5895,0.913306,0.954033,0.510372,0.954033,0.489628,0.664996,0.933648,1.021834,0.336788
116,64679,3174,62052,5946,0.912556,0.953222,0.510364,0.953222,0.489636,0.664793,0.932868,1.02182,0.336957
117,64586,3267,61912,6086,0.910497,0.951852,0.510569,0.951852,0.489431,0.664633,0.931153,1.02223,0.338624
118,64550,3303,61857,6141,0.909689,0.951321,0.510652,0.951321,0.489348,0.664573,0.930483,1.022395,0.33871
119,64531,3322,61828,6170,0.909262,0.951041,0.510696,0.951041,0.489304,0.664542,0.930129,1.022483,0.339286
120,64509,3344,61787,6211,0.908659,0.950717,0.510776,0.950717,0.489224,0.664531,0.929666,1.022644,0.339806
121,64459,3394,61703,6295,0.907424,0.94998,0.510922,0.94998,0.489078,0.664474,0.928679,1.022937,0.34
122,64355,3498,61542,6456,0.905056,0.948447,0.511172,0.948447,0.488828,0.66431,0.926729,1.023436,0.340909
123,64320,3533,61493,6505,0.904335,0.947932,0.511235,0.947932,0.488765,0.664236,0.92611,1.023562,0.341176
124,64288,3565,61445,6553,0.90363,0.94746,0.511306,0.94746,0.488694,0.66418,0.925521,1.023704,0.342857
125,64280,3573,61426,6572,0.90335,0.947342,0.511352,0.947342,0.488648,0.66419,0.925323,1.023797,0.343137
126,64256,3597,61392,6606,0.90285,0.946988,0.511397,0.946988,0.488603,0.664141,0.924896,1.023887,0.343234
127,64185,3668,61276,6722,0.901144,0.945942,0.511593,0.945942,0.488407,0.664049,0.923519,1.02428,0.344
128,64146,3707,61238,6760,0.900585,0.945367,0.511596,0.945367,0.488404,0.66391,0.922952,1.024286,0.344262
129,64123,3730,61196,6802,0.899968,0.945028,0.511678,0.945028,0.488322,0.663895,0.922474,1.02445,0.345133
130,64092,3761,61150,6848,0.899291,0.944571,0.511745,0.944571,0.488255,0.663839,0.921907,1.024584,0.345455
131,64075,3778,61117,6881,0.898806,0.944321,0.511814,0.944321,0.488186,0.663835,0.921539,1.024721,0.345794
132,64030,3823,61053,6945,0.897865,0.943658,0.5119,0.943658,0.4881,0.663743,0.920737,1.024894,0.345865
133,64005,3848,61015,6983,0.897306,0.943289,0.511958,0.943289,0.488042,0.663701,0.920273,1.02501,0.346591
134,63974,3879,60959,7039,0.896482,0.942832,0.512066,0.942832,0.487934,0.663679,0.919633,1.025227,0.346939
135,63953,3900,60928,7070,0.896026,0.942523,0.512112,0.942523,0.487888,0.66364,0.91925,1.025317,0.347985
136,63902,3951,60848,7150,0.89485,0.941771,0.51224,0.941771,0.48776,0.663562,0.918285,1.025576,0.348624
137,63880,3973,60814,7184,0.89435,0.941447,0.512294,0.941447,0.487706,0.663526,0.917873,1.025683,0.349515
138,63851,4002,60781,7217,0.893865,0.94102,0.512316,0.94102,0.487684,0.663439,0.917417,1.025727,0.34965
139,63826,4027,60734,7264,0.893173,0.940651,0.512412,0.940651,0.487588,0.663427,0.916887,1.025918,0.35
140,63772,4081,60648,7350,0.891909,0.939855,0.512554,0.939855,0.487446,0.663348,0.915856,1.026204,0.351563
141,63747,4106,60601,7397,0.891217,0.939487,0.51265,0.939487,0.48735,0.663337,0.915326,1.026395,0.352252
142,63538,4315,60237,7761,0.885864,0.936407,0.513335,0.936407,0.486665,0.663139,0.911108,1.027766,0.352941
143,63535,4318,60233,7765,0.885805,0.936362,0.513339,0.936362,0.486661,0.663132,0.911057,1.027776,0.353383
144,63473,4380,60139,7859,0.884423,0.935449,0.513486,0.935449,0.486514,0.663025,0.909909,1.028069,0.353627
145,63306,4547,59908,8090,0.881026,0.932987,0.513789,0.932987,0.486211,0.662658,0.906979,1.028676,0.35443
146,63277,4576,59871,8127,0.880482,0.93256,0.513829,0.93256,0.486171,0.662583,0.906493,1.028756,0.354651
147,63238,4615,59812,8186,0.879614,0.931985,0.513921,0.931985,0.486079,0.662514,0.905772,1.028941,0.35473
148,63188,4665,59709,8289,0.878099,0.931248,0.514154,0.931248,0.485846,0.662522,0.904646,1.029407,0.355072
149,63162,4691,59678,8320,0.877643,0.930865,0.514181,0.930865,0.485819,0.662447,0.904226,1.029461,0.35514
150,63140,4713,59627,8371,0.876893,0.930541,0.514308,0.930541,0.485692,0.66247,0.903689,1.029714,0.35545
151,63090,4763,59573,8425,0.876099,0.929804,0.514336,0.929804,0.485664,0.662307,0.902923,1.029771,0.356688
152,63066,4787,59525,8473,0.875393,0.92945,0.514442,0.92945,0.485558,0.662305,0.902393,1.029984,0.357576
153,63030,4823,59471,8527,0.874599,0.92892,0.514526,0.92892,0.485474,0.66224,0.901731,1.030152,0.357741
154,62911,4942,59303,8695,0.872129,0.927166,0.514761,0.927166,0.485239,0.661988,0.899618,1.030622,0.358108
155,62879,4974,59248,8750,0.87132,0.926694,0.514866,0.926694,0.485134,0.661954,0.898978,1.030832,0.358434
156,62815,5038,59159,8839,0.870011,0.925751,0.514987,0.925751,0.485013,0.661813,0.897851,1.031074,0.35865
157,62755,5098,59081,8917,0.868864,0.924867,0.515078,0.924867,0.484922,0.661662,0.896836,1.031256,0.359504
158,62702,5151,59006,8992,0.867761,0.924086,0.515184,0.924086,0.484816,0.66155,0.895893,1.031469,0.359543
159,62419,5434,58498,9500,0.86029,0.919915,0.516214,0.919915,0.483786,0.661323,0.890071,1.03353,0.361032
160,62360,5493,58391,9607,0.858716,0.919046,0.516435,0.919046,0.483565,0.66128,0.888849,1.033973,0.361921
161,61778,6075,57366,10632,0.843642,0.910468,0.518515,0.910468,0.481485,0.660738,0.87702,1.038139,0.363636
162,61737,6116,57281,10717,0.842392,0.909864,0.51872,0.909864,0.48128,0.660745,0.876092,1.038548,0.364444
163,61674,6179,57214,10784,0.841407,0.908935,0.518757,0.908935,0.481243,0.66053,0.875135,1.038623,0.365
164,61616,6237,57152,10846,0.840495,0.908081,0.518793,0.908081,0.481207,0.660333,0.874252,1.038695,0.365019
165,61556,6297,57064,10934,0.839201,0.907196,0.518934,0.907196,0.481066,0.660214,0.873163,1.038978,0.365217
166,61513,6340,56989,11009,0.838098,0.906563,0.519088,0.906563,0.480912,0.66017,0.872294,1.039286,0.365385
167,61486,6367,56960,11038,0.837672,0.906165,0.519106,0.906165,0.480894,0.660079,0.871882,1.039321,0.365854
168,61470,6383,56951,11047,0.837539,0.905929,0.51908,0.905929,0.48092,0.659995,0.871698,1.03927,0.366516
169,61416,6437,56866,11132,0.836289,0.905133,0.519234,0.905133,0.480766,0.659908,0.870674,1.039577,0.366972
170,61397,6456,56846,11152,0.835995,0.904853,0.519244,0.904853,0.480756,0.659842,0.870387,1.039598,0.367347
171,61354,6499,56795,11203,0.835245,0.904219,0.519293,0.904219,0.480707,0.659713,0.869695,1.039697,0.367647
172,61309,6544,56743,11255,0.83448,0.903556,0.519339,0.903556,0.480661,0.659573,0.868981,1.039788,0.367713
173,61248,6605,56671,11327,0.833422,0.902657,0.519407,0.902657,0.480593,0.659389,0.868002,1.039925,0.367925
174,61201,6652,56605,11393,0.832451,0.901965,0.519507,0.901965,0.480493,0.659284,0.867171,1.040123,0.368
175,61176,6677,56563,11435,0.831833,0.901596,0.51959,0.901596,0.48041,0.659253,0.866677,1.04029,0.368098
176,61071,6782,56402,11596,0.829466,0.900049,0.519873,0.900049,0.480127,0.659066,0.864719,1.040856,0.368421
177,61058,6795,56374,11624,0.829054,0.899857,0.519943,0.899857,0.480057,0.659071,0.864418,1.040998,0.368534
178,60944,6909,56237,11761,0.827039,0.898177,0.520084,0.898177,0.479916,0.658733,0.86257,1.04128,0.368984
179,60913,6940,56170,11828,0.826054,0.89772,0.520255,0.89772,0.479745,0.658747,0.861849,1.041621,0.369128
180,60878,6975,56129,11869,0.825451,0.897204,0.520294,0.897204,0.479706,0.658639,0.861289,1.041699,0.369369
181,60854,6999,56104,11894,0.825083,0.896851,0.520306,0.896851,0.479694,0.658554,0.860929,1.041725,0.369444
182,60712,7141,55908,12090,0.822201,0.894758,0.520597,0.894758,0.479403,0.658221,0.85844,1.042306,0.37
183,60627,7226,55773,12225,0.820215,0.893505,0.520851,0.893505,0.479149,0.658084,0.856821,1.042814,0.37037
184,60592,7261,55743,12255,0.819774,0.892989,0.520841,0.892989,0.479159,0.657936,0.856343,1.042794,0.37069
185,60484,7369,55571,12427,0.817245,0.891398,0.521167,0.891398,0.478833,0.657764,0.854282,1.043447,0.371429
186,60351,7502,55397,12601,0.814686,0.889437,0.5214,0.889437,0.4786,0.657415,0.852022,1.043914,0.372093
187,60297,7556,55315,12683,0.81348,0.888642,0.521546,0.888642,0.478454,0.657313,0.851021,1.044207,0.37224
188,60225,7628,55229,12769,0.812215,0.887581,0.521636,0.887581,0.478364,0.657094,0.849858,1.044387,0.37234
189,60205,7648,55193,12805,0.811686,0.887286,0.521716,0.887286,0.478284,0.657077,0.849445,1.044547,0.372642
190,60128,7725,55068,12930,0.809847,0.886151,0.521963,0.886151,0.478037,0.656961,0.847958,1.045041,0.372727
191,60104,7749,55027,12971,0.809244,0.885797,0.522049,0.885797,0.477951,0.656932,0.84748,1.045213,0.372781
192,60071,7782,54986,13012,0.808641,0.885311,0.522098,0.885311,0.477902,0.656837,0.846935,1.045311,0.372807
193,60011,7842,54934,13064,0.807877,0.884427,0.522084,0.884427,0.477916,0.656583,0.846111,1.045285,0.373016
194,59993,7860,54888,13110,0.8072,0.884161,0.522219,0.884161,0.477781,0.656616,0.84564,1.045553,0.373333
195,59960,7893,54855,13143,0.806715,0.883675,0.522231,0.883675,0.477769,0.656492,0.845154,1.045579,0.373984
196,59926,7927,54807,13191,0.806009,0.883174,0.522308,0.883174,0.477692,0.656414,0.84455,1.045733,0.374046
197,59859,7994,54690,13308,0.804288,0.882186,0.522562,0.882186,0.477438,0.656341,0.843196,1.046241,0.37415
198,59834,8019,54647,13351,0.803656,0.881818,0.522654,0.881818,0.477346,0.656312,0.842695,1.046426,0.374194
199,59805,8048,54604,13394,0.803024,0.881391,0.52273,0.881391,0.47727,0.656253,0.842165,1.046577,0.375
200,59769,8084,54552,13446,0.802259,0.88086,0.522817,0.88086,0.477183,0.656175,0.841518,1.046752,0.37561
201,59723,8130,54501,13497,0.801509,0.880182,0.522859,0.880182,0.477141,0.656019,0.840804,1.046835,0.375691
202,59686,8167,54439,13559,0.800597,0.879637,0.522988,0.879637,0.477012,0.655969,0.840075,1.047094,0.375969
203,59634,8219,54360,13638,0.799435,0.87887,0.523133,0.87887,0.476867,0.65587,0.83911,1.047384,0.376068
204,59603,8250,54318,13680,0.798818,0.878414,0.523196,0.878414,0.476804,0.655792,0.838573,1.04751,0.376289
205,59567,8286,54257,13741,0.797921,0.877883,0.523325,0.877883,0.476675,0.655746,0.837859,1.047769,0.376812
206,59465,8388,54117,13881,0.795862,0.87638,0.523542,0.87638,0.476458,0.655496,0.836078,1.048204,0.376963
207,59432,8421,54071,13927,0.795185,0.875893,0.523616,0.875893,0.476384,0.655418,0.835496,1.048351,0.377358
208,59404,8449,54041,13957,0.794744,0.875481,0.523637,0.875481,0.476363,0.655319,0.835069,1.048393,0.377451
209,59366,8487,53984,14014,0.793906,0.874921,0.523741,0.874921,0.476259,0.655243,0.83437,1.0486,0.377778
210,59283,8570,53836,14162,0.791729,0.873698,0.524076,0.873698,0.475924,0.655162,0.83267,1.049273,0.377953
211,59256,8597,53795,14203,0.791126,0.8733,0.524153,0.8733,0.475847,0.65511,0.832169,1.049426,0.378151
212,59241,8612,53759,14239,0.790597,0.873079,0.524257,0.873079,0.475743,0.655129,0.831794,1.049634,0.378378
213,59170,8683,53681,14317,0.78945,0.872032,0.52432,0.872032,0.47568,0.654883,0.830697,1.04976,0.378641
214,59159,8694,53650,14348,0.788994,0.87187,0.524417,0.87187,0.475583,0.654914,0.830388,1.049955,0.378723
215,59108,8745,53571,14427,0.787832,0.871118,0.52457,0.871118,0.47543,0.65482,0.829431,1.050261,0.378788
216,59078,8775,53533,14465,0.787273,0.870676,0.52462,0.870676,0.47538,0.654734,0.82893,1.050361,0.379603
217,59018,8835,53448,14550,0.786023,0.869792,0.524763,0.869792,0.475237,0.654595,0.827863,1.050647,0.37963
218,58993,8860,53418,14580,0.785582,0.869424,0.524797,0.869424,0.475203,0.654518,0.827458,1.050716,0.38
219,58955,8898,53376,14622,0.784964,0.868864,0.524833,0.868864,0.475167,0.654387,0.826869,1.050787,0.380282
220,58942,8911,53355,14643,0.784655,0.868672,0.524876,0.868672,0.475124,0.654366,0.826619,1.050874,0.380368
221,58915,8938,53296,14702,0.783788,0.868274,0.525038,0.868274,0.474962,0.654378,0.825986,1.051197,0.380488
222,58868,8985,53223,14775,0.782714,0.867581,0.52518,0.867581,0.47482,0.654292,0.825103,1.051483,0.38055
223,58784,9069,53072,14926,0.780494,0.866343,0.525533,0.866343,0.474467,0.654213,0.823373,1.052189,0.380567
224,58733,9120,53004,14994,0.779494,0.865592,0.525636,0.865592,0.474364,0.654079,0.822497,1.052395,0.380952
225,58726,9127,52993,15005,0.779332,0.865489,0.525658,0.865489,0.474342,0.654066,0.822364,1.05244,0.381944
226,58656,9197,52896,15102,0.777905,0.864457,0.525818,0.864457,0.474182,0.653895,0.821135,1.052759,0.382353
227,58604,9249,52811,15187,0.776655,0.863691,0.525997,0.863691,0.474003,0.653814,0.820126,1.053119,0.382664
228,58495,9358,52658,15340,0.774405,0.862084,0.526257,0.862084,0.473743,0.653554,0.818198,1.053638,0.382813
229,58479,9374,52627,15371,0.773949,0.861848,0.526335,0.861848,0.473665,0.653546,0.817852,1.053795,0.382979
230,58460,9393,52605,15393,0.773626,0.861568,0.526358,0.861568,0.473642,0.653484,0.81755,1.053842,0.383721
231,58437,9416,52587,15411,0.773361,0.861229,0.526346,0.861229,0.473654,0.653376,0.817248,1.053816,0.384615
232,58358,9495,52465,15533,0.771567,0.860065,0.526587,0.860065,0.473413,0.653227,0.815769,1.0543,0.385417
233,58314,9539,52389,15609,0.770449,0.859417,0.526761,0.859417,0.473239,0.653173,0.814885,1.054647,0.38587
234,58285,9568,52346,15652,0.769817,0.858989,0.526841,0.858989,0.473159,0.653112,0.814355,1.054809,0.386243
235,58247,9606,52300,15698,0.76914,0.858429,0.526898,0.858429,0.473102,0.652993,0.813737,1.054922,0.386667
236,58224,9629,52273,15725,0.768743,0.85809,0.526928,0.85809,0.473072,0.652918,0.813369,1.054983,0.386935
237,58181,9672,52225,15773,0.768037,0.857457,0.526973,0.857457,0.473027,0.652769,0.812699,1.055072,0.387097
238,58159,9694,52181,15817,0.76739,0.857132,0.527089,0.857132,0.472911,0.652764,0.812213,1.055304,0.38835
239,58134,9719,52154,15844,0.766993,0.856764,0.527111,0.856764,0.472889,0.652674,0.811831,1.055348,0.388889
240,58017,9836,52015,15983,0.764949,0.85504,0.527274,0.85504,0.472726,0.652298,0.809946,1.055675,0.38914
241,57973,9880,51945,16053,0.76392,0.854391,0.52742,0.854391,0.47258,0.652221,0.809107,1.055968,0.389381
242,57922,9931,51878,16120,0.762934,0.853639,0.527523,0.853639,0.472477,0.65208,0.808238,1.056173,0.39
243,57855,9998,51792,16206,0.761669,0.852652,0.527648,0.852652,0.472352,0.651887,0.807112,1.056423,0.390244
244,57804,10049,51729,16269,0.760743,0.8519,0.527731,0.8519,0.472269,0.651731,0.806273,1.05659,0.390411
245,57722,10131,51640,16358,0.759434,0.850692,0.527807,0.850692,0.472193,0.651435,0.805014,1.056741,0.390476
246,57698,10155,51599,16399,0.758831,0.850338,0.527901,0.850338,0.472099,0.651403,0.804536,1.05693,0.390977
247,57667,10186,51560,16438,0.758258,0.849881,0.527956,0.849881,0.472044,0.65131,0.804021,1.057039,0.391304
248,57632,10221,51525,16473,0.757743,0.849366,0.527973,0.849366,0.472027,0.651172,0.803505,1.057075,0.391566
249,57588,10265,51483,16515,0.757125,0.848717,0.527986,0.848717,0.472014,0.650991,0.802872,1.057101,0.391781
250,57501,10352,51350,16648,0.755169,0.847435,0.528254,0.847435,0.471746,0.650817,0.801253,1.057637,0.392157
251,57417,10436,51227,16771,0.75336,0.846197,0.528488,0.846197,0.471512,0.650629,0.799729,1.058104,0.393064
252,57380,10473,51177,16821,0.752625,0.845652,0.52857,0.845652,0.47143,0.65053,0.799089,1.05827,0.393258
253,57360,10493,51161,16837,0.75239,0.845357,0.528561,0.845357,0.471439,0.650436,0.798824,1.058252,0.39418
254,57264,10589,51041,16957,0.750625,0.843942,0.528729,0.843942,0.471271,0.650144,0.797234,1.058588,0.394649
255,57197,10656,50972,17026,0.74961,0.842955,0.528774,0.842955,0.471226,0.649885,0.796233,1.058679,0.395349
256,57178,10675,50940,17058,0.74914,0.842675,0.528848,0.842675,0.471152,0.649857,0.795857,1.058826,0.395556
257,57117,10736,50876,17122,0.748198,0.841776,0.528895,0.841776,0.471105,0.649625,0.794937,1.058921,0.395973
258,57091,10762,50851,17147,0.747831,0.841392,0.528904,0.841392,0.471096,0.649518,0.794562,1.058939,0.39604
259,57031,10822,50793,17205,0.746978,0.840508,0.528927,0.840508,0.471073,0.649271,0.793693,1.058984,0.396226
260,57018,10835,50777,17221,0.746743,0.840317,0.528948,0.840317,0.471052,0.64923,0.79348,1.059027,0.39645
261,56957,10896,50676,17322,0.745257,0.839418,0.529178,0.839418,0.470822,0.649134,0.792287,1.059487,0.396825
262,56922,10931,50637,17361,0.744684,0.838902,0.529217,0.838902,0.470783,0.649009,0.791742,1.059564,0.396947
263,56902,10951,50598,17400,0.74411,0.838607,0.529321,0.838607,0.470679,0.648999,0.791308,1.059773,0.397213
264,56843,11010,50498,17500,0.742639,0.837737,0.529555,0.837737,0.470445,0.648915,0.790138,1.060242,0.39726
265,56801,11052,50471,17527,0.742242,0.837118,0.529504,0.837118,0.470496,0.648691,0.78963,1.06014,0.397727
266,56761,11092,50422,17576,0.741522,0.836529,0.529571,0.836529,0.470429,0.648564,0.788975,1.060274,0.398026
267,56697,11156,50305,17693,0.739801,0.835586,0.529869,0.835586,0.470131,0.648503,0.787642,1.06087,0.398148
268,56633,11220,50235,17763,0.738772,0.834643,0.529934,0.834643,0.470066,0.648268,0.786656,1.061001,0.398601
269,56610,11243,50196,17802,0.738198,0.834304,0.530026,0.834304,0.469974,0.648235,0.7862,1.061185,0.398693
270,56581,11272,50143,17855,0.737419,0.833876,0.530162,0.833876,0.469838,0.648207,0.785596,1.061457,0.399733
271,56452,11401,49903,18095,0.733889,0.831975,0.530788,0.831975,0.469212,0.648099,0.78288,1.062711,0.4
272,56127,11726,49493,18505,0.72786,0.827185,0.531405,0.827185,0.468595,0.647098,0.777469,1.063946,0.401163
273,56050,11803,49384,18614,0.726257,0.82605,0.531612,0.82605,0.468388,0.646904,0.7761,1.06436,0.401274
274,55996,11857,49312,18686,0.725198,0.825255,0.531735,0.825255,0.468265,0.646751,0.775173,1.064607,0.401869
275,55969,11884,49281,18717,0.724742,0.824857,0.531772,0.824857,0.468228,0.646655,0.774746,1.06468,0.402778
276,55839,12014,49132,18866,0.722551,0.822941,0.531947,0.822941,0.468053,0.646195,0.772692,1.065031,0.403073
277,55635,12218,48906,19092,0.719227,0.819934,0.532184,0.819934,0.467816,0.64544,0.769527,1.065504,0.403561
278,55576,12277,48807,19191,0.717771,0.819065,0.532424,0.819065,0.467576,0.645347,0.768364,1.065985,0.403846
279,55526,12327,48724,19274,0.71655,0.818328,0.532624,0.818328,0.467376,0.645265,0.767385,1.066385,0.404372
280,55481,12372,48656,19342,0.71555,0.817665,0.532769,0.817665,0.467231,0.645165,0.766553,1.066677,0.404824
281,54311,13542,47089,20909,0.692506,0.800421,0.535611,0.800421,0.464389,0.641773,0.746406,1.072367,0.405063
282,54272,13581,47047,20951,0.691888,0.799847,0.535655,0.799847,0.464345,0.641619,0.74581,1.072454,0.405405
283,54262,13591,47039,20959,0.69177,0.799699,0.535651,0.799699,0.464349,0.641569,0.745677,1.072447,0.405797
284,54228,13625,47001,20997,0.691212,0.799198,0.535696,0.799198,0.464304,0.64144,0.745147,1.072537,0.406015
285,54197,13656,46965,21033,0.690682,0.798741,0.535745,0.798741,0.464255,0.641328,0.744654,1.072634,0.406383
286,54093,13760,46817,21181,0.688506,0.797209,0.536052,0.797209,0.463948,0.641053,0.742799,1.073249,0.40655
287,53624,14229,46032,21966,0.676961,0.790297,0.538091,0.790297,0.461909,0.640252,0.733568,1.077332,0.407143
288,53576,14277,45939,22059,0.675593,0.789589,0.538371,0.789589,0.461629,0.640218,0.73253,1.077893,0.407351
289,53423,14430,45746,22252,0.672755,0.787334,0.538707,0.787334,0.461293,0.639712,0.729984,1.078565,0.407547
290,53361,14492,45673,22325,0.671682,0.786421,0.538815,0.786421,0.461185,0.639487,0.72899,1.078781,0.407942
291,53307,14546,45602,22396,0.670637,0.785625,0.53895,0.785625,0.46105,0.639318,0.72807,1.079052,0.408377
292,53270,14583,45555,22443,0.669946,0.78508,0.539034,0.78508,0.460966,0.639197,0.727451,1.079219,0.408696
293,53247,14606,45533,22465,0.669623,0.784741,0.539046,0.784741,0.460954,0.639093,0.72712,1.079245,0.408907
294,53193,14660,45459,22539,0.668534,0.783945,0.539198,0.783945,0.460802,0.638936,0.726178,1.079549,0.408935
295,53119,14734,45382,22616,0.667402,0.782854,0.539274,0.782854,0.460726,0.638626,0.725066,1.0797,0.409091
296,53112,14741,45376,22622,0.667314,0.782751,0.539274,0.782751,0.460726,0.638592,0.724971,1.0797,0.409182
297,53003,14850,45217,22781,0.664975,0.781145,0.539636,0.781145,0.460364,0.63831,0.722998,1.080424,0.409574
298,52950,14903,45175,22823,0.664358,0.780363,0.539618,0.780363,0.460382,0.638036,0.722299,1.080389,0.41
299,52926,14927,45154,22844,0.664049,0.78001,0.539621,0.78001,0.460379,0.63792,0.721967,1.080395,0.410138
300,52878,14975,45082,22916,0.66299,0.779302,0.539792,0.779302,0.460208,0.637803,0.721084,1.080737,0.410428
301,51745,16108,43424,24574,0.638607,0.762604,0.543717,0.762604,0.456283,0.634822,0.70054,1.088596,0.410853
302,51723,16130,43395,24603,0.638181,0.76228,0.543777,0.76228,0.456223,0.634751,0.700164,1.088716,0.411111
303,51681,16172,43360,24638,0.637666,0.761661,0.543776,0.761661,0.456224,0.634535,0.699597,1.088714,0.411215
304,51622,16231,43298,24700,0.636754,0.760792,0.543847,0.760792,0.456153,0.634282,0.698707,1.088857,0.411765
305,51611,16242,43273,24725,0.636386,0.76063,0.543938,0.76063,0.456062,0.634287,0.698442,1.089038,0.412214
306,51590,16263,43239,24759,0.635886,0.76032,0.544032,0.76032,0.455968,0.634243,0.698037,1.089226,0.412245
307,51544,16309,43163,24835,0.634769,0.759642,0.544247,0.759642,0.455753,0.634154,0.697139,1.089657,0.412308
308,51447,16406,43063,24935,0.633298,0.758213,0.544355,0.758213,0.455645,0.633728,0.695689,1.089873,0.412371
309,51407,16446,43022,24976,0.632695,0.757623,0.544398,0.757623,0.455602,0.633551,0.695092,1.08996,0.413497
310,51234,16619,42790,25208,0.629283,0.755073,0.544903,0.755073,0.455097,0.632999,0.692111,1.090971,0.413534
311,51189,16664,42743,25255,0.628592,0.75441,0.544958,0.75441,0.455042,0.632803,0.691434,1.091081,0.414847
312,51131,16722,42665,25333,0.627445,0.753555,0.54513,0.753555,0.45487,0.632618,0.690433,1.091425,0.414894
313,51105,16748,42650,25348,0.627224,0.753172,0.545091,0.753172,0.454909,0.632456,0.690131,1.091347,0.415094
314,51061,16792,42608,25390,0.626607,0.752524,0.545122,0.752524,0.454878,0.632248,0.689498,1.091408,0.415584
315,51043,16810,42578,25420,0.626165,0.752259,0.545209,0.752259,0.454791,0.632213,0.689145,1.091583,0.416058
316,51013,16840,42533,25465,0.625504,0.751816,0.545325,0.751816,0.454675,0.632135,0.688593,1.091816,0.416342
317,50967,16886,42465,25533,0.624504,0.751138,0.545498,0.751138,0.454502,0.632012,0.687753,1.092162,0.416667
318,50952,16901,42460,25538,0.62443,0.750917,0.545455,0.750917,0.454545,0.631904,0.687606,1.092075,0.417293
319,50883,16970,42380,25618,0.623254,0.749901,0.545586,0.749901,0.454414,0.631632,0.686509,1.092338,0.417323
320,50857,16996,42329,25669,0.622504,0.749517,0.545758,0.749517,0.454242,0.631611,0.685943,1.092682,0.417647
321,50789,17064,42227,25771,0.621004,0.748515,0.546024,0.748515,0.453976,0.631433,0.684691,1.093216,0.417808
322,50762,17091,42190,25808,0.620459,0.748117,0.54611,0.748117,0.45389,0.631349,0.68422,1.093387,0.41791
323,50726,17127,42152,25846,0.619901,0.747587,0.546157,0.747587,0.453843,0.631191,0.683675,1.093482,0.417969
324,50663,17190,42071,25927,0.618709,0.746658,0.546326,0.746658,0.453674,0.630973,0.682616,1.09382,0.418182
325,50632,17221,42022,25976,0.617989,0.746201,0.546463,0.746201,0.453537,0.630901,0.682027,1.094094,0.418605
326,50589,17264,41967,26031,0.61718,0.745568,0.546577,0.745568,0.453423,0.63075,0.681305,1.094322,0.418848
327,50548,17305,41901,26097,0.616209,0.744963,0.546766,0.744963,0.453234,0.63066,0.680518,1.094701,0.418941
328,50438,17415,41756,26242,0.614077,0.743342,0.547085,0.743342,0.452915,0.63029,0.678641,1.09534,0.419355
329,50388,17465,41690,26308,0.613106,0.742605,0.547232,0.742605,0.452768,0.630122,0.677787,1.095633,0.419913
330,50340,17513,41629,26369,0.612209,0.741898,0.547358,0.741898,0.452642,0.629951,0.676984,1.095886,0.42
331,50331,17522,41612,26386,0.611959,0.741765,0.547415,0.741765,0.452585,0.629941,0.676793,1.096,0.420814
332,50294,17559,41550,26448,0.611047,0.74122,0.547602,0.74122,0.452398,0.629868,0.676064,1.096375,0.422392
333,50208,17645,41441,26557,0.609444,0.739953,0.547829,0.739953,0.452171,0.62956,0.674629,1.096829,0.422619
334,50164,17689,41403,26595,0.608886,0.739304,0.547839,0.739304,0.452161,0.629331,0.674025,1.096849,0.422764
335,50135,17718,41363,26635,0.608297,0.738877,0.547935,0.738877,0.452065,0.62924,0.673517,1.097042,0.423077
336,50105,17748,41333,26665,0.607856,0.738435,0.547967,0.738435,0.452033,0.6291,0.673076,1.097105,0.42328
337,50060,17793,41287,26711,0.60718,0.737771,0.54802,0.737771,0.45198,0.628894,0.672406,1.097211,0.423841
338,49983,17870,41221,26777,0.606209,0.736637,0.548035,0.736637,0.451965,0.628492,0.671353,1.097241,0.424242
339,49949,17904,41182,26816,0.605635,0.736135,0.548101,0.736135,0.451899,0.628353,0.670816,1.097373,0.424581
340,49900,17953,41125,26873,0.604797,0.735413,0.548201,0.735413,0.451799,0.628155,0.670036,1.097574,0.424779
341,49883,17970,41079,26919,0.604121,0.735163,0.548394,0.735163,0.451606,0.62819,0.669572,1.09796,0.42623
342,49870,17983,41057,26941,0.603797,0.734971,0.548462,0.734971,0.451538,0.628165,0.669314,1.098096,0.426509
343,49559,18294,40631,27367,0.597532,0.730388,0.549496,0.730388,0.450504,0.627158,0.663889,1.100165,0.426901
344,49503,18350,40574,27424,0.596694,0.729562,0.549563,0.729562,0.450437,0.626898,0.663057,1.100301,0.427273
345,49475,18378,40547,27451,0.596297,0.72915,0.549588,0.72915,0.450412,0.626762,0.662652,1.10035,0.427419
346,49458,18395,40508,27490,0.595723,0.728899,0.549741,0.728899,0.450259,0.626769,0.66224,1.100657,0.427711
347,49428,18425,40465,27533,0.595091,0.728457,0.549854,0.728457,0.450146,0.626678,0.661703,1.100882,0.428571
348,49393,18460,40429,27569,0.594562,0.727941,0.549899,0.727941,0.450101,0.626517,0.66118,1.100972,0.429003
349,49252,18601,40217,27781,0.591444,0.725863,0.550492,0.725863,0.449508,0.62613,0.658582,1.102161,0.42919
350,48812,19041,39757,28241,0.584679,0.719379,0.551118,0.719379,0.448882,0.624107,0.651957,1.103414,0.429293
351,48777,19076,39720,28278,0.584135,0.718863,0.551171,0.718863,0.448829,0.623946,0.651427,1.10352,0.429907
352,48686,19167,39650,28348,0.583105,0.717522,0.551146,0.717522,0.448854,0.623424,0.650242,1.103469,0.430353
353,48237,19616,39072,28926,0.574605,0.710904,0.552486,0.710904,0.447514,0.621763,0.642682,1.106153,0.430769
354,48209,19644,39030,28968,0.573987,0.710492,0.552608,0.710492,0.447392,0.621683,0.642167,1.106398,0.430894
355,48185,19668,39007,28991,0.573649,0.710138,0.552631,0.710138,0.447369,0.621561,0.641821,1.106443,0.431034
356,48157,19696,38962,29036,0.572987,0.709725,0.552773,0.709725,0.447227,0.621493,0.641283,1.106727,0.432624
357,48123,19730,38922,29076,0.572399,0.709224,0.552852,0.709224,0.447148,0.621351,0.640739,1.106885,0.432836
358,48030,19823,38816,29182,0.57084,0.707854,0.553048,0.707854,0.446952,0.620948,0.639274,1.107278,0.433079
359,47803,20050,38580,29418,0.56737,0.704508,0.553384,0.704508,0.446616,0.619868,0.635866,1.107951,0.433333
360,47752,20101,38523,29475,0.566531,0.703757,0.553486,0.703757,0.446514,0.619641,0.635071,1.108155,0.433628
361,47656,20197,38393,29605,0.56462,0.702342,0.553824,0.702342,0.446176,0.619303,0.633407,1.108831,0.433735
362,47637,20216,38360,29638,0.564134,0.702062,0.553938,0.702062,0.446062,0.619266,0.633024,1.10906,0.433962
363,47586,20267,38320,29678,0.563546,0.70131,0.553931,0.70131,0.446069,0.618969,0.632355,1.109046,0.434109
364,47547,20306,38283,29715,0.563002,0.700735,0.553967,0.700735,0.446033,0.618767,0.631795,1.109118,0.434426
365,47515,20338,38237,29761,0.562325,0.700264,0.554098,0.700264,0.445902,0.618665,0.631221,1.10938,0.434524
366,47120,20733,37703,30295,0.554472,0.694442,0.55551,0.694442,0.44449,0.617255,0.624383,1.112207,0.434921
367,47052,20801,37616,30382,0.553193,0.69344,0.555724,0.69344,0.444276,0.61699,0.623242,1.112635,0.435115
368,47019,20834,37580,30418,0.552663,0.692954,0.555787,0.692954,0.444213,0.616837,0.622734,1.112761,0.435583
369,46984,20869,37531,30467,0.551943,0.692438,0.555925,0.692438,0.444075,0.616717,0.622115,1.113038,0.435705
370,46629,21224,37101,30897,0.545619,0.687206,0.556897,0.687206,0.443103,0.615227,0.616337,1.114984,0.436975
371,46557,21296,37034,30964,0.544634,0.686145,0.556962,0.686145,0.443038,0.614841,0.615314,1.115114,0.4375
372,46510,21343,37000,30998,0.544134,0.685452,0.556939,0.685452,0.443061,0.614549,0.614718,1.115069,0.437939
373,46412,21441,36875,31123,0.542295,0.684008,0.557254,0.684008,0.442746,0.614159,0.613076,1.115699,0.438272
374,46371,21482,36836,31162,0.541722,0.683404,0.557297,0.683404,0.442703,0.613941,0.612487,1.115785,0.438356
375,46325,21528,36794,31204,0.541104,0.682726,0.557333,0.682726,0.442667,0.61369,0.611839,1.115858,0.438462
376,46299,21554,36771,31227,0.540766,0.682343,0.557349,0.682343,0.442651,0.613545,0.611479,1.115889,0.438889
377,46253,21600,36732,31266,0.540192,0.681665,0.557366,0.681665,0.442634,0.61328,0.610853,1.115923,0.439024
378,46201,21652,36639,31359,0.538825,0.680898,0.557714,0.680898,0.442286,0.61318,0.609786,1.116619,0.439252
379,46173,21680,36611,31387,0.538413,0.680486,0.557753,0.680486,0.442247,0.613037,0.609374,1.116697,0.439394
380,46162,21691,36598,31400,0.538222,0.680324,0.557782,0.680324,0.442218,0.612988,0.609197,1.116755,0.44
381,46073,21780,36504,31494,0.536839,0.679012,0.55794,0.679012,0.44206,0.612551,0.60785,1.117072,0.440945
382,46029,21824,36470,31528,0.536339,0.678364,0.557934,0.678364,0.442066,0.612283,0.607276,1.11706,0.441233
383,45913,21940,36327,31671,0.534236,0.676654,0.558281,0.676654,0.441719,0.611794,0.605369,1.117754,0.441341
384,45867,21986,36277,31721,0.533501,0.675976,0.558373,0.675976,0.441627,0.611572,0.604662,1.117939,0.441379
385,45831,22022,36238,31760,0.532927,0.675445,0.558445,0.675445,0.441555,0.611398,0.60411,1.118083,0.441667
386,45807,22046,36208,31790,0.532486,0.675092,0.55852,0.675092,0.44148,0.611298,0.603713,1.118233,0.441748
387,45764,22089,36151,31847,0.531648,0.674458,0.558677,0.674458,0.441323,0.611132,0.602977,1.118547,0.442105
388,45701,22152,36087,31911,0.530707,0.67353,0.558774,0.67353,0.441226,0.610809,0.602042,1.118742,0.442478
389,45679,22174,36055,31943,0.530236,0.673205,0.558874,0.673205,0.441126,0.610735,0.601644,1.118942,0.442953
390,45650,22203,36018,31980,0.529692,0.672778,0.55897,0.672778,0.44103,0.610617,0.601159,1.119135,0.443299
391,45623,22230,35989,32009,0.529266,0.67238,0.559023,0.67238,0.440977,0.610484,0.600746,1.119241,0.443359
392,45480,22373,35844,32154,0.527133,0.670273,0.559245,0.670273,0.440755,0.609745,0.598626,1.119684,0.443609
393,45452,22401,35803,32195,0.52653,0.66986,0.559375,0.66986,0.440625,0.609652,0.598119,1.119945,0.443878
394,45399,22454,35742,32256,0.525633,0.669079,0.559508,0.669079,0.440492,0.609407,0.597279,1.120211,0.443966
395,45348,22505,35686,32312,0.52481,0.668327,0.559617,0.668327,0.440383,0.60916,0.596492,1.12043,0.444444
396,45192,22661,35525,32473,0.522442,0.666028,0.559882,0.666028,0.440118,0.60836,0.594158,1.120961,0.444646
397,45066,22787,35365,32633,0.520089,0.664171,0.560306,0.664171,0.439694,0.607834,0.592053,1.12181,0.44525
398,44763,23090,35050,32948,0.515456,0.659706,0.560848,0.659706,0.439152,0.606274,0.587504,1.122895,0.445545
399,44709,23144,34997,33001,0.514677,0.65891,0.560924,0.65891,0.439076,0.605981,0.586716,1.123046,0.445596
400,44660,23193,34939,33059,0.513824,0.658188,0.561062,0.658188,0.438938,0.605756,0.585929,1.123324,0.445783
401,44637,23216,34915,33083,0.513471,0.657849,0.561105,0.657849,0.438895,0.605638,0.585583,1.123408,0.446078
402,44593,23260,34873,33125,0.512853,0.6572,0.561158,0.6572,0.438842,0.605394,0.58495,1.123516,0.446154
403,44575,23278,34865,33133,0.512736,0.656935,0.561115,0.656935,0.438885,0.605256,0.584758,1.12343,0.446281
404,44544,23309,34827,33171,0.512177,0.656478,0.561213,0.656478,0.438787,0.605119,0.58425,1.123624,0.446429
405,44516,23337,34801,33197,0.511794,0.656065,0.561242,0.656065,0.438758,0.60496,0.583853,1.123683,0.447514
406,44465,23388,34742,33256,0.510927,0.655314,0.561377,0.655314,0.438623,0.604719,0.583043,1.123954,0.447552
407,44429,23424,34716,33282,0.510544,0.654783,0.561362,0.654783,0.438638,0.604484,0.582587,1.123924,0.447761
408,44349,23504,34620,33378,0.509133,0.653604,0.5616,0.653604,0.4384,0.604119,0.581291,1.1244,0.448905
409,44282,23571,34566,33432,0.508338,0.652617,0.561612,0.652617,0.438388,0.603704,0.580401,1.124425,0.449541
410,44268,23585,34535,33463,0.507883,0.65241,0.561755,0.65241,0.438245,0.603698,0.580069,1.124711,0.45
411,44239,23614,34503,33495,0.507412,0.651983,0.561822,0.651983,0.438178,0.603554,0.57962,1.124845,0.450292
412,44208,23645,34454,33544,0.506691,0.651526,0.561999,0.651526,0.438001,0.60346,0.579031,1.1252,0.450331
413,44171,23682,34419,33579,0.506177,0.650981,0.562044,0.650981,0.437956,0.603252,0.578501,1.125288,0.450535
414,43984,23869,34216,33782,0.503191,0.648225,0.562455,0.648225,0.437545,0.602302,0.575631,1.126112,0.451128
415,43954,23899,34174,33824,0.502574,0.647783,0.56259,0.647783,0.43741,0.602188,0.575101,1.126381,0.45122
416,43933,23920,34149,33849,0.502206,0.647473,0.562652,0.647473,0.437348,0.60209,0.574762,1.126507,0.451613
417,43909,23944,34119,33879,0.501765,0.64712,0.562734,0.64712,0.437266,0.601984,0.574365,1.12667,0.451777
418,43754,24099,33961,34037,0.499441,0.644835,0.563006,0.644835,0.436994,0.601149,0.572061,1.127215,0.453552
419,43709,24144,33907,34091,0.498647,0.644172,0.563144,0.644172,0.436856,0.600939,0.571332,1.127492,0.453704
420,43684,24169,33881,34117,0.498265,0.643804,0.563192,0.643804,0.436808,0.600806,0.570956,1.127588,0.453782
421,43653,24200,33855,34143,0.497882,0.643347,0.563206,0.643347,0.436794,0.600615,0.570537,1.127616,0.453901
422,43620,24233,33820,34178,0.497368,0.64286,0.563275,0.64286,0.436725,0.600442,0.570036,1.127753,0.454148
423,43564,24289,33760,34238,0.496485,0.642035,0.563396,0.642035,0.436604,0.60015,0.569182,1.127995,0.454756
424,43463,24390,33633,34365,0.494617,0.640546,0.563752,0.640546,0.436248,0.599701,0.567504,1.128708,0.455446
425,43434,24419,33610,34388,0.494279,0.640119,0.563756,0.640119,0.436244,0.599516,0.567121,1.128716,0.455621
426,43390,24463,33570,34428,0.493691,0.639471,0.563799,0.639471,0.436201,0.599256,0.566503,1.128804,0.455696
427,43278,24575,33475,34523,0.492294,0.63782,0.563861,0.63782,0.436139,0.598564,0.564979,1.128926,0.456311
428,43255,24598,33456,34542,0.492014,0.637481,0.56387,0.637481,0.43613,0.59842,0.56467,1.128944,0.456993
429,42885,24968,33032,34966,0.485779,0.632028,0.564893,0.632028,0.435107,0.596578,0.558825,1.130994,0.457447
430,42865,24988,33002,34996,0.485338,0.631733,0.565002,0.631733,0.434998,0.596507,0.558457,1.131211,0.457808
431,41524,26329,31425,36573,0.462146,0.61197,0.56922,0.61197,0.43078,0.589821,0.536978,1.139656,0.458101
432,41476,26377,31372,36626,0.461367,0.611263,0.56935,0.611263,0.43065,0.589562,0.536235,1.139916,0.458333
433,41434,26419,31341,36657,0.460911,0.610644,0.569344,0.610644,0.430656,0.589271,0.535697,1.139904,0.459677
434,41396,26457,31299,36699,0.460293,0.610084,0.569448,0.610084,0.430552,0.589066,0.535108,1.140112,0.46
435,41343,26510,31232,36766,0.459308,0.609302,0.569659,0.609302,0.430341,0.588814,0.534225,1.140535,0.460317
436,41315,26538,31169,36829,0.458381,0.60889,0.569988,0.60889,0.430012,0.588797,0.533555,1.141194,0.460432
437,41264,26589,31129,36869,0.457793,0.608138,0.57,0.608138,0.43,0.588452,0.532885,1.141218,0.461111
438,41205,26648,31074,36924,0.456984,0.607269,0.570083,0.607269,0.429917,0.588088,0.532046,1.141383,0.46114
439,41149,26704,31023,36975,0.456234,0.606443,0.570152,0.606443,0.429848,0.587738,0.531259,1.141522,0.461538
440,41086,26767,30953,37045,0.455205,0.605515,0.57033,0.605515,0.42967,0.587396,0.530279,1.141879,0.461988
441,41038,26815,30909,37089,0.454557,0.604807,0.570392,0.604807,0.429608,0.587096,0.529602,1.142003,0.462366
442,40979,26874,30854,37144,0.453749,0.603938,0.570476,0.603938,0.429524,0.58673,0.528763,1.142171,0.462687
443,40943,26910,30805,37193,0.453028,0.603407,0.57065,0.603407,0.42935,0.586572,0.528137,1.14252,0.463158
444,40917,26936,30785,37213,0.452734,0.603024,0.570654,0.603024,0.429346,0.586392,0.527799,1.142527,0.463415
445,40862,26991,30727,37271,0.451881,0.602214,0.570786,0.602214,0.429214,0.586079,0.526967,1.142792,0.463576
446,40811,27042,30695,37303,0.45141,0.601462,0.570735,0.601462,0.429265,0.585696,0.526356,1.14269,0.463745
447,40012,27841,29777,38221,0.43791,0.589687,0.573328,0.589687,0.426672,0.581392,0.513717,1.147882,0.463918
448,39944,27909,29738,38260,0.437336,0.588684,0.573233,0.588684,0.426767,0.580856,0.51293,1.14769,0.464
449,39919,27934,29695,38303,0.436704,0.588316,0.573434,0.588316,0.426566,0.580779,0.512429,1.148092,0.464286
450,39859,27994,29630,38368,0.435748,0.587432,0.573602,0.587432,0.426398,0.580434,0.511509,1.148429,0.464567
451,39829,28024,29596,38402,0.435248,0.58699,0.573698,0.58699,0.426302,0.580268,0.511038,1.148622,0.464968
452,39791,28062,29554,38444,0.43463,0.586429,0.573812,0.586429,0.426188,0.580052,0.510449,1.14885,0.465116
453,39727,28126,29489,38509,0.433675,0.585486,0.573957,0.585486,0.426043,0.579664,0.509499,1.14914,0.465241
454,39691,28162,29452,38546,0.43313,0.584956,0.574042,0.584956,0.425958,0.579448,0.508962,1.149311,0.466019
455,39673,28180,29426,38572,0.432748,0.58469,0.574147,0.58469,0.425853,0.579371,0.508638,1.149521,0.466102
456,39648,28205,29399,38599,0.432351,0.584322,0.574218,0.584322,0.425782,0.579226,0.508255,1.149662,0.468635
457,39560,28293,29323,38675,0.431233,0.583025,0.574307,0.583025,0.425693,0.578633,0.507048,1.149842,0.469565
458,39524,28329,29284,38714,0.43066,0.582495,0.57441,0.582495,0.42559,0.578424,0.506496,1.150047,0.469945
459,39470,28383,29237,38761,0.429969,0.581699,0.574468,0.581699,0.425532,0.578061,0.505753,1.150164,0.470588
460,39468,28385,29231,38767,0.42988,0.581669,0.574506,0.581669,0.425494,0.578065,0.505694,1.15024,0.471074
461,39371,28482,29117,38881,0.428204,0.58024,0.57486,0.58024,0.42514,0.577537,0.504141,1.150948,0.471264
462,39333,28520,29070,38928,0.427513,0.57968,0.575019,0.57968,0.424981,0.57734,0.503515,1.151266,0.472727
463,39310,28543,29038,38960,0.427042,0.579341,0.575145,0.579341,0.424855,0.577235,0.50311,1.151519,0.472973
464,39290,28563,29018,38980,0.426748,0.579046,0.575189,0.579046,0.424811,0.577111,0.502816,1.151607,0.473333
465,39207,28646,28939,39059,0.425586,0.577823,0.575338,0.577823,0.424662,0.576578,0.501623,1.151906,0.473684
466,39146,28707,28869,39129,0.424557,0.576924,0.57555,0.576924,0.42445,0.576236,0.500659,1.152329,0.474026
467,39097,28756,28831,39167,0.423998,0.576201,0.575565,0.576201,0.424435,0.575883,0.500018,1.152361,0.474138
468,39069,28784,28800,39198,0.423542,0.575789,0.575653,0.575789,0.424347,0.575721,0.499584,1.152536,0.474227
469,39037,28816,28775,39223,0.423174,0.575317,0.575665,0.575317,0.424335,0.575491,0.499165,1.15256,0.474684
470,38992,28861,28733,39265,0.422557,0.574654,0.57574,0.574654,0.42426,0.575197,0.498524,1.152711,0.475248
471,38976,28877,28707,39291,0.422174,0.574418,0.575861,0.574418,0.424139,0.575139,0.498215,1.152953,0.475524
472,38942,28911,28680,39318,0.421777,0.573917,0.575878,0.573917,0.424122,0.574896,0.497766,1.152986,0.475728
473,38902,28951,28618,39380,0.420865,0.573328,0.576155,0.573328,0.423845,0.574738,0.497015,1.153542,0.47619
474,38848,29005,28560,39438,0.420012,0.572532,0.576311,0.572532,0.423689,0.574415,0.496191,1.153854,0.47644
475,38804,29049,28510,39488,0.419277,0.571883,0.576463,0.571883,0.423537,0.574164,0.495499,1.154157,0.477778
476,38753,29100,28465,39533,0.418615,0.571132,0.576527,0.571132,0.423473,0.573817,0.494792,1.154286,0.478261
477,38718,29135,28424,39574,0.418012,0.570616,0.576658,0.570616,0.423342,0.573621,0.494233,1.154549,0.478673
478,38664,29189,28369,39629,0.417203,0.56982,0.576791,0.56982,0.423209,0.573284,0.49343,1.154814,0.478754
479,38375,29478,28089,39909,0.413086,0.565561,0.57738,0.565561,0.42262,0.571409,0.489242,1.155994,0.478873
480,38355,29498,28074,39924,0.412865,0.565266,0.577383,0.565266,0.422617,0.57126,0.488984,1.156001,0.479233
481,38275,29578,27987,40011,0.411586,0.564087,0.577631,0.564087,0.422369,0.570779,0.487755,1.156497,0.48
482,38265,29588,27975,40023,0.411409,0.56394,0.577672,0.56394,0.422328,0.570723,0.487593,1.156579,0.480315
483,38227,29626,27936,40062,0.410836,0.56338,0.57777,0.56338,0.42223,0.570484,0.487026,1.156775,0.480769
484,38178,29675,27871,40127,0.40988,0.562658,0.578025,0.562658,0.421975,0.570238,0.486187,1.157286,0.480919
485,37544,30309,27199,40799,0.399997,0.553314,0.579893,0.553314,0.420107,0.566292,0.476574,1.161025,0.48125
486,37508,30345,27159,40839,0.399409,0.552783,0.580018,0.552783,0.419982,0.566073,0.476014,1.161275,0.481481
487,37488,30365,27133,40865,0.399026,0.552488,0.580121,0.552488,0.419879,0.565968,0.475676,1.161482,0.481651
488,37441,30412,27069,40929,0.398085,0.551796,0.580391,0.551796,0.419609,0.565732,0.474858,1.162022,0.482759
489,37435,30418,27064,40934,0.398012,0.551707,0.580397,0.551707,0.419603,0.565688,0.474778,1.162033,0.482955
490,37395,30458,27009,40989,0.397203,0.551118,0.580632,0.551118,0.419368,0.56549,0.474078,1.162504,0.483444
491,37360,30493,26972,41026,0.396659,0.550602,0.580737,0.550602,0.419263,0.565268,0.473548,1.162716,0.483871
492,37330,30523,26946,41052,0.396276,0.55016,0.580777,0.55016,0.419223,0.565054,0.473136,1.162794,0.485437
493,37299,30554,26927,41071,0.395997,0.549703,0.580746,0.549703,0.419254,0.564798,0.472768,1.162733,0.485981
494,37275,30578,26900,41098,0.3956,0.549349,0.580834,0.549349,0.419166,0.564653,0.472393,1.162909,0.486486
495,37239,30614,26877,41121,0.395262,0.548819,0.580807,0.548819,0.419193,0.56436,0.471958,1.162854,0.486631
496,37196,30657,26831,41167,0.394585,0.548185,0.580942,0.548185,0.419058,0.564089,0.471303,1.163126,0.486842
497,37181,30672,26812,41186,0.394306,0.547964,0.581017,0.547964,0.418983,0.564006,0.471053,1.163275,0.48731
498,37137,30716,26758,41240,0.393512,0.547316,0.581219,0.547316,0.418781,0.563758,0.470331,1.16368,0.488
499,37107,30746,26719,41279,0.392938,0.546873,0.581377,0.546873,0.418623,0.563598,0.469824,1.163997,0.490417
500,36890,30963,26493,41505,0.389614,0.543675,0.582017,0.543675,0.417983,0.562193,0.466563,1.165278,0.494505
501,36871,30982,26462,41536,0.389159,0.543395,0.582177,0.543395,0.417823,0.562118,0.466195,1.165598,0.494737
502,36849,31004,26435,41563,0.388761,0.543071,0.58228,0.543071,0.41772,0.561992,0.465834,1.165804,0.496552
503,36820,31033,26403,41595,0.388291,0.542644,0.582383,0.542644,0.417617,0.561811,0.465385,1.166011,0.5
504,36746,31107,26335,41663,0.387291,0.541553,0.582521,0.541553,0.417479,0.56129,0.46434,1.166287,0.505051
505,36716,31137,26300,41698,0.386776,0.541111,0.582646,0.541111,0.417354,0.561111,0.463861,1.166536,0.505241
506,36715,31138,26300,41698,0.386776,0.541096,0.582639,0.541096,0.417361,0.5611,0.463854,1.166523,0.506098
507,36658,31195,26271,41727,0.38635,0.540256,0.58253,0.540256,0.41747,0.560597,0.463221,1.166304,0.506329
508,36634,31219,26256,41742,0.386129,0.539902,0.582509,0.539902,0.417491,0.560397,0.462934,1.166263,0.506849
509,36616,31237,26244,41754,0.385953,0.539637,0.582501,0.539637,0.417499,0.56025,0.462713,1.166246,0.507692
510,36614,31239,26244,41754,0.385953,0.539608,0.582488,0.539608,0.417512,0.560228,0.462698,1.16622,0.508772
511,36596,31257,26224,41774,0.385658,0.539342,0.582553,0.539342,0.417447,0.560116,0.462418,1.166352,0.510345
512,36565,31288,26196,41802,0.385247,0.538886,0.582607,0.538886,0.417393,0.559894,0.461984,1.166459,0.510526
513,36527,31326,26160,41838,0.384717,0.538325,0.582689,0.538325,0.417311,0.559629,0.461439,1.166622,0.511364
514,36479,31374,26129,41869,0.384261,0.537618,0.582657,0.537618,0.417343,0.559232,0.460858,1.166559,0.512315
515,36423,31430,26089,41909,0.383673,0.536793,0.582656,0.536793,0.417344,0.558785,0.460151,1.166557,0.5125
516,36402,31451,26058,41940,0.383217,0.536483,0.582805,0.536483,0.417195,0.558686,0.459768,1.166855,0.512762
517,36400,31453,26058,41940,0.383217,0.536454,0.582792,0.536454,0.417208,0.558664,0.459754,1.166829,0.515152
518,36309,31544,25948,42050,0.381599,0.535113,0.583212,0.535113,0.416788,0.558128,0.458274,1.167669,0.515924
519,36259,31594,25893,42105,0.380791,0.534376,0.583392,0.534376,0.416608,0.557809,0.457501,1.168031,0.516364
520,36186,31667,25836,42162,0.379952,0.5333,0.583438,0.5333,0.416562,0.557244,0.456544,1.168123,0.516667
521,36158,31695,25816,42182,0.379658,0.532887,0.583438,0.532887,0.416562,0.557018,0.456191,1.168123,0.516854
522,36110,31743,25776,42222,0.37907,0.53218,0.583492,0.53218,0.416508,0.556656,0.455543,1.168231,0.516908
523,36058,31795,25735,42263,0.378467,0.531413,0.583529,0.531413,0.416471,0.556253,0.454859,1.168305,0.517483
524,36026,31827,25702,42296,0.377982,0.530942,0.583625,0.530942,0.416375,0.556038,0.45438,1.168497,0.517949
525,35971,31882,25645,42353,0.377143,0.530131,0.583793,0.530131,0.416207,0.55567,0.453556,1.168834,0.519608
526,35922,31931,25575,42423,0.376114,0.529409,0.584126,0.529409,0.415874,0.555423,0.45268,1.1695,0.519685
527,35864,31989,25519,42479,0.37529,0.528554,0.584266,0.528554,0.415734,0.555016,0.451841,1.169781,0.520325
528,35840,32013,25496,42502,0.374952,0.528201,0.584322,0.528201,0.415678,0.554846,0.451495,1.169894,0.521008
529,35801,32052,25452,42546,0.374305,0.527626,0.584477,0.527626,0.415523,0.554599,0.450884,1.170204,0.521053
530,35700,32153,25353,42645,0.372849,0.526137,0.584738,0.526137,0.415262,0.553892,0.449411,1.170725,0.521739
531,35674,32179,25319,42679,0.372349,0.525754,0.584887,0.525754,0.415113,0.553746,0.44897,1.171023,0.523077
532,35656,32197,25285,42713,0.371849,0.525489,0.58509,0.525489,0.41491,0.55369,0.448587,1.171431,0.52381
533,35653,32200,25281,42717,0.37179,0.525445,0.585108,0.525445,0.414892,0.553674,0.448536,1.171467,0.525
534,35648,32205,25275,42723,0.371702,0.525371,0.585132,0.525371,0.414868,0.553644,0.448455,1.171515,0.525253
535,35582,32271,25234,42764,0.371099,0.524398,0.585076,0.524398,0.414924,0.553078,0.447667,1.171403,0.526316
536,35576,32277,25232,42766,0.37107,0.52431,0.585055,0.52431,0.414945,0.553019,0.447608,1.171359,0.526667
537,35554,32299,25195,42803,0.370526,0.523986,0.585261,0.523986,0.414739,0.552931,0.447174,1.171772,0.527363
538,35505,32348,25145,42853,0.36979,0.523264,0.585408,0.523264,0.414592,0.552594,0.446445,1.172067,0.52795
539,35461,32392,25102,42896,0.369158,0.522615,0.585523,0.522615,0.414477,0.552283,0.445805,1.172296,0.528846
540,35432,32421,25086,42912,0.368923,0.522188,0.585479,0.522188,0.414521,0.552025,0.445473,1.172209,0.52907
541,35393,32460,25052,42946,0.368423,0.521613,0.585541,0.521613,0.414459,0.551731,0.444936,1.172332,0.529412
542,35360,32493,25025,42973,0.368026,0.521127,0.585576,0.521127,0.414424,0.551475,0.444494,1.172403,0.530387
543,35323,32530,24983,43015,0.367408,0.520581,0.585729,0.520581,0.414271,0.551237,0.443913,1.172711,0.53211
544,35299,32554,24956,43042,0.367011,0.520228,0.585827,0.520228,0.414173,0.551082,0.443537,1.172906,0.533333
545,35295,32558,24953,43045,0.366967,0.520169,0.585829,0.520169,0.414171,0.55105,0.443486,1.172909,0.533784
546,35264,32589,24917,43081,0.366437,0.519712,0.585966,0.519712,0.414034,0.550854,0.442993,1.173184,0.534351
547,35231,32622,24890,43108,0.36604,0.519225,0.586002,0.519225,0.413998,0.550596,0.442551,1.173255,0.534759
548,35186,32667,24837,43161,0.365261,0.518562,0.586209,0.518562,0.413791,0.550314,0.44183,1.17367,0.535211
549,35134,32719,24783,43215,0.364467,0.517796,0.586378,0.517796,0.413622,0.549957,0.441049,1.174009,0.535433
550,35107,32746,24757,43241,0.364084,0.517398,0.586446,0.517398,0.413554,0.549762,0.440659,1.174145,0.535714
551,35075,32778,24733,43265,0.363731,0.516926,0.58646,0.516926,0.41354,0.549502,0.440247,1.174173,0.536232
552,35063,32790,24712,43286,0.363422,0.516749,0.586583,0.516749,0.413417,0.549456,0.440004,1.17442,0.537367
553,34990,32863,24621,43377,0.362084,0.515674,0.586972,0.515674,0.413028,0.549018,0.438797,1.175199,0.537736
554,34960,32893,24590,43408,0.361628,0.515231,0.58707,0.515231,0.41293,0.54881,0.438348,1.175394,0.538462
555,34960,32893,24584,43414,0.36154,0.515231,0.587129,0.515231,0.412871,0.548836,0.438304,1.175512,0.539063
556,34898,32955,24508,43490,0.360422,0.514318,0.587449,0.514318,0.412551,0.548456,0.437288,1.176154,0.539568
557,34829,33024,24436,43562,0.359364,0.513301,0.587682,0.513301,0.412318,0.547979,0.43625,1.176621,0.539823
558,34795,33058,24423,43575,0.359172,0.5128,0.587575,0.5128,0.412425,0.547647,0.435904,1.176405,0.540146
559,34759,33094,24381,43617,0.358555,0.512269,0.587741,0.512269,0.412259,0.547416,0.43533,1.176738,0.540541
560,34722,33131,24352,43646,0.358128,0.511724,0.587771,0.511724,0.412229,0.547118,0.434844,1.176799,0.540741
561,34686,33167,24314,43684,0.357569,0.511193,0.587898,0.511193,0.412102,0.546869,0.434299,1.177053,0.541096
562,34651,33202,24276,43722,0.357011,0.510677,0.588033,0.510677,0.411967,0.546632,0.433762,1.177322,0.541401
563,34606,33247,24228,43770,0.356305,0.510014,0.588197,0.510014,0.411803,0.546323,0.433077,1.177652,0.543307
564,34509,33344,24144,43854,0.355069,0.508585,0.588359,0.508585,0.411641,0.545571,0.431745,1.177975,0.543689
565,34480,33373,24119,43879,0.354702,0.508157,0.588406,0.508157,0.411594,0.545345,0.431348,1.178069,0.54386
566,34452,33401,24086,43912,0.354216,0.507745,0.588541,0.507745,0.411459,0.545165,0.430899,1.178339,0.544118
567,34421,33432,24048,43950,0.353657,0.507288,0.588705,0.507288,0.411295,0.544972,0.430391,1.178668,0.544126
568,33982,33871,23608,44390,0.347187,0.500818,0.590068,0.500818,0.409932,0.541792,0.42392,1.181396,0.544304
569,33915,33938,23510,44488,0.345745,0.499831,0.590596,0.499831,0.409404,0.541436,0.422706,1.182455,0.544554
570,33880,33973,23491,44507,0.345466,0.499315,0.590542,0.499315,0.409458,0.54111,0.422308,1.182346,0.545024
571,33833,34020,23449,44549,0.344848,0.498622,0.590639,0.498622,0.409361,0.540744,0.421653,1.182541,0.545455
572,33780,34073,23400,44598,0.344128,0.497841,0.590766,0.497841,0.409234,0.540337,0.420902,1.182794,0.546218
573,33745,34108,23384,44614,0.343892,0.497325,0.590681,0.497325,0.409319,0.539998,0.420527,1.182624,0.546448
574,33689,34164,23337,44661,0.343201,0.4965,0.590766,0.4965,0.409234,0.539546,0.419769,1.182794,0.547771
575,33636,34217,23292,44706,0.342539,0.495719,0.590852,0.495719,0.409148,0.539121,0.419047,1.182966,0.548387
576,33627,34226,23289,44709,0.342495,0.495586,0.590818,0.495586,0.409182,0.539028,0.418959,1.182899,0.548872
577,33600,34253,23260,44738,0.342069,0.495188,0.590925,0.495188,0.409075,0.538837,0.418547,1.183113,0.54902
578,33555,34298,23199,44799,0.341172,0.494525,0.591236,0.494525,0.408764,0.538573,0.417767,1.183735,0.549266
579,33439,34414,23085,44913,0.339495,0.492815,0.591589,0.492815,0.408411,0.537704,0.416073,1.184443,0.54955
580,33395,34458,23060,44938,0.339128,0.492167,0.591533,0.492167,0.408467,0.537294,0.415566,1.18433,0.549618
581,33358,34495,23022,44976,0.338569,0.491622,0.591664,0.491622,0.408336,0.537023,0.415014,1.184592,0.55
582,33320,34533,22985,45013,0.338025,0.491062,0.591777,0.491062,0.408223,0.536735,0.414461,1.184818,0.550265
583,33270,34583,22918,45080,0.337039,0.490325,0.592119,0.490325,0.407881,0.536436,0.4136,1.185504,0.550562
584,33244,34609,22890,45108,0.336628,0.489941,0.592226,0.489941,0.407774,0.53625,0.413203,1.185717,0.550832
585,33116,34737,22776,45222,0.334951,0.488055,0.5925,0.488055,0.4075,0.53523,0.411421,1.186266,0.551181
586,33089,34764,22740,45258,0.334422,0.487657,0.592685,0.487657,0.407315,0.535066,0.410958,1.186636,0.551809
587,30275,37578,20377,47621,0.299671,0.446185,0.597706,0.446185,0.402294,0.510949,0.37285,1.196689,0.552113
588,30151,37702,20306,47692,0.298626,0.444358,0.597558,0.444358,0.402442,0.509695,0.371414,1.196394,0.552381
589,30114,37739,20268,47730,0.298068,0.443812,0.597713,0.443812,0.402287,0.509392,0.370862,1.196704,0.552486
590,30059,37794,20223,47775,0.297406,0.443002,0.597808,0.443002,0.402192,0.508892,0.370126,1.196894,0.55287
591,29972,37881,20146,47852,0.296273,0.44172,0.598029,0.44172,0.401971,0.508125,0.368919,1.197335,0.55303
592,29930,37923,20115,47883,0.295818,0.441101,0.598062,0.441101,0.401938,0.507727,0.368382,1.197402,0.553191
593,29894,37959,20075,47923,0.295229,0.44057,0.598251,0.44057,0.401749,0.507443,0.367822,1.19778,0.553719
594,29858,37995,20058,47940,0.294979,0.440039,0.598165,0.440039,0.401835,0.50706,0.367432,1.197608,0.554054
595,29810,38043,20024,47974,0.294479,0.439332,0.598186,0.439332,0.401814,0.506598,0.366828,1.19765,0.554542
596,29006,38847,19394,48604,0.285214,0.427483,0.599298,0.427483,0.400702,0.499015,0.356273,1.199876,0.554622
597,28976,38877,19361,48637,0.284729,0.427041,0.599458,0.427041,0.400542,0.498769,0.355809,1.200197,0.554974
598,28937,38916,19316,48682,0.284067,0.426466,0.599693,0.426466,0.400307,0.498458,0.355191,1.200668,0.555556
599,28799,39054,19196,48802,0.282302,0.424432,0.600042,0.424432,0.399958,0.497186,0.353291,1.201366,0.556886
600,28763,39090,19148,48850,0.281597,0.423902,0.600342,0.423902,0.399658,0.496925,0.352673,1.201968,0.558442
601,28723,39130,19100,48898,0.280891,0.423312,0.600611,0.423312,0.399389,0.496611,0.352025,1.202505,0.558533
602,28310,39543,18746,49252,0.275685,0.417225,0.601624,0.417225,0.398376,0.492738,0.346379,1.204533,0.558923
603,28231,39622,18697,49301,0.274964,0.416061,0.601581,0.416061,0.398419,0.491911,0.345437,1.204448,0.559322
604,28175,39678,18660,49338,0.27442,0.415236,0.60158,0.415236,0.39842,0.491333,0.344753,1.204446,0.559524
605,28125,39728,18621,49377,0.273846,0.414499,0.601656,0.414499,0.398344,0.490842,0.344098,1.204597,0.559633
606,28096,39757,18589,49409,0.273376,0.414072,0.601821,0.414072,0.398179,0.490597,0.343649,1.204928,0.56
607,28088,39765,18580,49418,0.273243,0.413954,0.601869,0.413954,0.398131,0.49053,0.343523,1.205023,0.56051
608,28045,39808,18538,49460,0.272626,0.41332,0.602044,0.41332,0.397956,0.490143,0.342898,1.205374,0.56087
609,27988,39865,18486,49512,0.271861,0.41248,0.602229,0.41248,0.397771,0.489613,0.342095,1.205745,0.560976
610,27959,39894,18461,49537,0.271493,0.412053,0.602305,0.412053,0.397695,0.489337,0.341698,1.205897,0.561446
611,27840,40013,18371,49627,0.27017,0.410299,0.602454,0.410299,0.397546,0.488147,0.340159,1.206195,0.561644
612,27791,40062,18332,49666,0.269596,0.409577,0.602541,0.409577,0.397459,0.487664,0.339512,1.20637,0.561905
613,27759,40094,18303,49695,0.26917,0.409105,0.602644,0.409105,0.397356,0.487363,0.339063,1.206576,0.56338
614,27719,40134,18260,49738,0.268537,0.408515,0.602862,0.408515,0.397138,0.487016,0.338452,1.207013,0.56383
615,27639,40214,18205,49793,0.267728,0.407336,0.602892,0.407336,0.397108,0.486187,0.337458,1.207073,0.564246
616,27610,40243,18156,49842,0.267008,0.406909,0.603286,0.406909,0.396714,0.48601,0.336884,1.207862,0.564516
617,27580,40273,18120,49878,0.266478,0.406467,0.603501,0.406467,0.396499,0.485764,0.336398,1.208292,0.564767
618,27519,40334,18074,49924,0.265802,0.405568,0.603579,0.405568,0.396421,0.485147,0.33561,1.208449,0.564815
619,27489,40364,18042,49956,0.265331,0.405126,0.603743,0.405126,0.396257,0.484883,0.335154,1.208775,0.564972
620,27405,40448,17953,50045,0.264022,0.403888,0.604193,0.403888,0.395807,0.48414,0.333881,1.209678,0.565217
621,27348,40505,17902,50096,0.263272,0.403048,0.604376,0.403048,0.395624,0.483595,0.333086,1.210043,0.565574
622,27315,40538,17877,50121,0.262905,0.402561,0.604421,0.402561,0.395579,0.483259,0.332659,1.210134,0.565836
623,27248,40605,17812,50186,0.261949,0.401574,0.604705,0.401574,0.395295,0.482637,0.331687,1.210702,0.565934
624,27198,40655,17781,50217,0.261493,0.400837,0.604682,0.400837,0.395318,0.482097,0.331091,1.210657,0.565957
625,27126,40727,17725,50273,0.260669,0.399776,0.604803,0.399776,0.395197,0.481367,0.330148,1.210898,0.567568
626,27117,40736,17712,50286,0.260478,0.399643,0.604899,0.399643,0.395101,0.481301,0.329987,1.21109,0.567797
627,27075,40778,17681,50317,0.260022,0.399024,0.604947,0.399024,0.395053,0.480867,0.329449,1.211186,0.568306
628,27024,40829,17635,50363,0.259346,0.398273,0.605119,0.398273,0.394881,0.480375,0.328735,1.211531,0.568627
629,27014,40839,17621,50377,0.25914,0.398125,0.60522,0.398125,0.39478,0.4803,0.328558,1.211734,0.568702
630,26872,40981,17482,50516,0.257096,0.396033,0.605853,0.396033,0.394147,0.478972,0.32649,1.213001,0.568807
631,26839,41014,17454,50544,0.256684,0.395546,0.605942,0.395546,0.394058,0.478644,0.326041,1.213179,0.568966
632,26815,41038,17424,50574,0.256243,0.395193,0.606139,0.395193,0.393861,0.478446,0.325644,1.213574,0.569106
633,26788,41065,17394,50604,0.255802,0.394795,0.60631,0.394795,0.39369,0.478208,0.325224,1.213916,0.569479
634,26572,41281,17201,50797,0.252963,0.391611,0.607041,0.391611,0.392959,0.47609,0.322213,1.215379,0.56962
635,26527,41326,17174,50824,0.252566,0.390948,0.607011,0.390948,0.392989,0.47559,0.321683,1.21532,0.570033
636,26443,41410,17096,50902,0.251419,0.38971,0.607341,0.38971,0.392659,0.474774,0.320491,1.215979,0.570313
637,26410,41443,17056,50942,0.250831,0.389224,0.607601,0.389224,0.392399,0.474492,0.319953,1.216501,0.570423
638,26366,41487,17017,50981,0.250257,0.388575,0.60775,0.388575,0.39225,0.474055,0.319343,1.216798,0.570552
639,26321,41532,16978,51020,0.249684,0.387912,0.607889,0.387912,0.392111,0.473604,0.318724,1.217078,0.570922
640,26262,41591,16909,51089,0.248669,0.387043,0.608325,0.387043,0.391675,0.473087,0.317782,1.21795,0.571429
641,26228,41625,16874,51124,0.248154,0.386541,0.60851,0.386541,0.39149,0.472768,0.317274,1.21832,0.572034
642,26158,41695,16820,51178,0.24736,0.38551,0.608637,0.38551,0.391363,0.472034,0.316361,1.218575,0.572368
643,26115,41738,16785,51213,0.246845,0.384876,0.608741,0.384876,0.391259,0.47159,0.315787,1.218783,0.572414
644,26068,41785,16752,51246,0.24636,0.384183,0.608781,0.384183,0.391219,0.471081,0.315198,1.218863,0.572988
645,25858,41995,16605,51393,0.244198,0.381089,0.608954,0.381089,0.391046,0.468799,0.31257,1.219209,0.573034
646,25835,42018,16587,51411,0.243934,0.38075,0.609,0.38075,0.391,0.468556,0.312269,1.219302,0.574257
647,25803,42050,16559,51439,0.243522,0.380278,0.609107,0.380278,0.390893,0.46823,0.311827,1.219516,0.575269
648,25766,42087,16533,51465,0.24314,0.379733,0.60914,0.379733,0.39086,0.467826,0.311363,1.219581,0.575419
649,25699,42154,16494,51504,0.242566,0.378745,0.609082,0.378745,0.390918,0.467059,0.310583,1.219466,0.575646
650,25624,42229,16432,51566,0.241654,0.37764,0.609283,0.37764,0.390717,0.466277,0.309574,1.219868,0.576087
651,25599,42254,16405,51593,0.241257,0.377271,0.609442,0.377271,0.390558,0.466042,0.309192,1.220186,0.576923
652,25529,42324,16348,51650,0.240419,0.37624,0.609619,0.37624,0.390381,0.465306,0.308257,1.22054,0.577114
653,25470,42383,16308,51690,0.239831,0.37537,0.609651,0.37537,0.390349,0.46465,0.307528,1.220605,0.577181
654,25428,42425,16267,51731,0.239228,0.374751,0.609857,0.374751,0.390143,0.464235,0.306917,1.221018,0.577689
655,25361,42492,16210,51788,0.238389,0.373764,0.610065,0.373764,0.389935,0.463536,0.306004,1.221433,0.577778
656,25246,42607,16129,51869,0.237198,0.372069,0.610175,0.372069,0.389825,0.462262,0.304562,1.221654,0.578378
657,25192,42661,16089,51909,0.23661,0.371273,0.610257,0.371273,0.389743,0.461671,0.30387,1.221817,0.578571
658,25124,42729,16020,51978,0.235595,0.370271,0.610636,0.370271,0.389364,0.461004,0.302861,1.222577,0.578867
659,24902,42951,15861,52137,0.233257,0.366999,0.610897,0.366999,0.389103,0.458533,0.300057,1.2231,0.578947
660,24794,43059,15736,52262,0.231419,0.365408,0.611744,0.365408,0.388256,0.457526,0.298342,1.224796,0.579235
661,24748,43105,15687,52311,0.230698,0.36473,0.612044,0.36473,0.387956,0.457077,0.297642,1.225396,0.580357
662,24712,43141,15664,52334,0.23036,0.364199,0.612047,0.364199,0.387953,0.456661,0.297208,1.225401,0.580488
663,24656,43197,15615,52383,0.229639,0.363374,0.612252,0.363374,0.387748,0.456069,0.296435,1.225812,0.580952
664,24622,43231,15594,52404,0.22933,0.362873,0.612244,0.362873,0.387756,0.455672,0.29603,1.225796,0.58125
665,24575,43278,15551,52447,0.228698,0.36218,0.612446,0.36218,0.387554,0.455181,0.295368,1.2262,0.58194
666,24489,43364,15486,52512,0.227742,0.360913,0.612608,0.360913,0.387392,0.454223,0.294256,1.226525,0.581967
667,24457,43396,15454,52544,0.227271,0.360441,0.612788,0.360441,0.387212,0.453899,0.293785,1.226886,0.582192
668,24381,43472,15385,52613,0.226257,0.359321,0.613112,0.359321,0.386888,0.453098,0.292718,1.227534,0.582677
669,24347,43506,15357,52641,0.225845,0.35882,0.613213,0.35882,0.386787,0.452727,0.292261,1.227736,0.582781
670,24305,43548,15320,52678,0.225301,0.358201,0.613375,0.358201,0.386625,0.452279,0.29168,1.228062,0.583333
671,24104,43749,15180,52818,0.223242,0.355239,0.613583,0.355239,0.386417,0.449966,0.28917,1.228477,0.583691
672,24035,43818,15127,52871,0.222462,0.354222,0.613733,0.354222,0.386267,0.449189,0.288272,1.228777,0.58371
673,23964,43889,15094,52904,0.221977,0.353175,0.613549,0.353175,0.386451,0.448298,0.287506,1.228409,0.583942
674,23914,43939,15066,52932,0.221565,0.352438,0.613494,0.352438,0.386506,0.447689,0.286932,1.228299,0.584211
675,23873,43980,15026,52972,0.220977,0.351834,0.613718,0.351834,0.386282,0.447261,0.286336,1.228747,0.58427
676,23817,44036,14985,53013,0.220374,0.351009,0.613809,0.351009,0.386191,0.446618,0.285622,1.228929,0.584746
677,23781,44072,14969,53029,0.220139,0.350478,0.613703,0.350478,0.386297,0.44616,0.285239,1.228718,0.58498
678,23710,44143,14899,53099,0.219109,0.349432,0.614106,0.349432,0.385894,0.445417,0.284201,1.229523,0.585366
679,23699,44154,14891,53107,0.218992,0.34927,0.614123,0.34927,0.385877,0.44529,0.284061,1.229558,0.586498
680,23652,44201,14830,53168,0.218095,0.348577,0.614625,0.348577,0.385375,0.444858,0.283266,1.230563,0.586777
681,23628,44225,14807,53191,0.217756,0.348223,0.614752,0.348223,0.385248,0.444603,0.28292,1.230818,0.586957
682,23566,44287,14758,53240,0.217036,0.34731,0.614915,0.34731,0.385085,0.4439,0.282103,1.231144,0.587302
683,23517,44336,14726,53272,0.216565,0.346587,0.614936,0.346587,0.385064,0.443315,0.281507,1.231186,0.588235
684,23402,44451,14648,53350,0.215418,0.344893,0.615033,0.344893,0.384967,0.441952,0.280086,1.23138,0.588378
685,23301,44552,14571,53427,0.214286,0.343404,0.615257,0.343404,0.384743,0.440785,0.278776,1.231828,0.589744
686,23263,44590,14532,53466,0.213712,0.342844,0.615505,0.342844,0.384495,0.440387,0.278209,1.232325,0.59
687,23076,44777,14369,53629,0.211315,0.340088,0.616264,0.340088,0.383736,0.438299,0.275633,1.233845,0.591716
688,23026,44827,14323,53675,0.210639,0.339351,0.616509,0.339351,0.383491,0.437748,0.274926,1.234336,0.59204
689,22965,44888,14285,53713,0.21008,0.338452,0.61651,0.338452,0.38349,0.437,0.274197,1.234338,0.592593
690,22938,44915,14241,53757,0.209433,0.338054,0.616961,0.338054,0.383039,0.436781,0.273675,1.235241,0.593583
691,22883,44970,14195,53803,0.208756,0.337244,0.617158,0.337244,0.382842,0.436153,0.272931,1.235636,0.59375
692,22844,45009,14177,53821,0.208491,0.336669,0.617055,0.336669,0.382945,0.435647,0.272512,1.235429,0.594595
693,22800,45053,14137,53861,0.207903,0.336021,0.617267,0.336021,0.382733,0.435156,0.271893,1.235854,0.594828
694,22673,45180,14034,53964,0.206388,0.334149,0.617675,0.334149,0.382325,0.433684,0.2702,1.23667,0.594904
695,22456,45397,13888,54110,0.204241,0.330951,0.617874,0.330951,0.382126,0.43103,0.267528,1.237068,0.595062
696,22343,45510,13792,54206,0.202829,0.329285,0.61832,0.329285,0.38168,0.429723,0.26599,1.237962,0.595238
697,22293,45560,13740,54258,0.202065,0.328548,0.618683,0.328548,0.381317,0.429182,0.265239,1.238688,0.595395
698,22203,45650,13674,54324,0.201094,0.327222,0.618864,0.327222,0.381136,0.428092,0.264091,1.239051,0.59589
699,22150,45703,13643,54355,0.200638,0.326441,0.618836,0.326441,0.381164,0.427416,0.263472,1.238995,0.596273
700,22105,45748,13603,54395,0.20005,0.325778,0.619049,0.325778,0.380951,0.426898,0.262847,1.239421,0.596386
701,22051,45802,13575,54423,0.199638,0.324982,0.618958,0.324982,0.381042,0.426193,0.262243,1.239239,0.596774
702,22020,45833,13546,54452,0.199212,0.324525,0.619131,0.324525,0.380869,0.425841,0.261802,1.239584,0.596899
703,21971,45882,13516,54482,0.198771,0.323803,0.619128,0.323803,0.380872,0.425218,0.26122,1.239579,0.597561
704,21924,45929,13487,54511,0.198344,0.32311,0.61913,0.32311,0.38087,0.42462,0.260661,1.239582,0.598131
705,21904,45949,13457,54541,0.197903,0.322815,0.619439,0.322815,0.380561,0.424439,0.260293,1.240203,0.598291
706,21825,46028,13396,54602,0.197006,0.321651,0.619659,0.321651,0.380341,0.423482,0.259262,1.240642,0.59893
707,21785,46068,13361,54637,0.196491,0.321062,0.619843,0.321062,0.380157,0.423014,0.25871,1.24101,0.599068
708,21657,46196,13278,54720,0.19527,0.319175,0.619923,0.319175,0.380077,0.421392,0.257157,1.24117,0.599569
709,21424,46429,13082,54916,0.192388,0.315741,0.620878,0.315741,0.379122,0.418605,0.253999,1.243082,0.6
710,21395,46458,13056,54942,0.192006,0.315314,0.621027,0.315314,0.378973,0.418263,0.253594,1.243381,0.601307
711,21359,46494,13012,54986,0.191359,0.314783,0.621425,0.314783,0.378575,0.417886,0.253005,1.244178,0.601643
712,21217,46636,12906,55092,0.1898,0.312691,0.62178,0.312691,0.37822,0.416118,0.25118,1.244889,0.60181
713,21140,46713,12849,55149,0.188961,0.311556,0.621966,0.311556,0.378034,0.415153,0.250193,1.245261,0.601852
714,21100,46753,12822,55176,0.188564,0.310966,0.622015,0.310966,0.377985,0.41464,0.2497,1.24536,0.601896
715,21032,46821,12776,55222,0.187888,0.309964,0.622101,0.309964,0.377899,0.413767,0.248861,1.245532,0.60262
716,20911,46942,12653,55345,0.186079,0.308181,0.623019,0.308181,0.376981,0.412377,0.247065,1.247369,0.602923
717,20641,47212,12504,55494,0.183888,0.304202,0.622749,0.304202,0.377251,0.408741,0.243981,1.246828,0.604317
718,20590,47263,12479,55519,0.18352,0.30345,0.622638,0.30345,0.377362,0.408038,0.243421,1.246606,0.604478
719,20548,47305,12458,55540,0.183211,0.302831,0.622553,0.302831,0.377447,0.40746,0.242957,1.246437,0.604651
720,20486,47367,12423,55575,0.182697,0.301917,0.622504,0.301917,0.377496,0.406622,0.242243,1.246339,0.605769
721,20459,47394,12403,55595,0.182402,0.301519,0.622573,0.301519,0.377427,0.406275,0.241897,1.246477,0.605839
722,20427,47426,12377,55621,0.18202,0.301048,0.622698,0.301048,0.377302,0.405873,0.24147,1.246728,0.606061
723,20414,47439,12375,55623,0.181991,0.300856,0.622587,0.300856,0.377413,0.405676,0.24136,1.246504,0.606426
724,20335,47518,12328,55670,0.181299,0.299692,0.62257,0.299692,0.37743,0.404612,0.240433,1.24647,0.606557
725,20304,47549,12301,55697,0.180902,0.299235,0.622727,0.299235,0.377273,0.404229,0.240006,1.246784,0.606628
726,20101,47752,12169,55829,0.178961,0.296243,0.622901,0.296243,0.377099,0.401526,0.23754,1.247132,0.607143
727,20071,47782,12140,55858,0.178535,0.295801,0.62311,0.295801,0.37689,0.401163,0.237105,1.247552,0.607692
728,19994,47859,12087,55911,0.177755,0.294666,0.623235,0.294666,0.376765,0.400144,0.236148,1.247802,0.608997
729,19915,47938,12020,55978,0.17677,0.293502,0.62361,0.293502,0.37639,0.399146,0.235074,1.248554,0.609375
730,19888,47965,12000,55998,0.176476,0.293104,0.623683,0.293104,0.376317,0.398793,0.234728,1.248699,0.609626
731,19842,48011,11963,56035,0.175932,0.292426,0.623864,0.292426,0.376136,0.398202,0.234117,1.249062,0.609819
732,19728,48125,11889,56109,0.174843,0.290746,0.623968,0.290746,0.376032,0.396662,0.232733,1.24927,0.610169
733,19700,48153,11865,56133,0.17449,0.290334,0.624109,0.290334,0.375891,0.396307,0.23235,1.249552,0.610256
734,19451,48402,11695,56303,0.17199,0.286664,0.62451,0.286664,0.37549,0.392953,0.229266,1.250355,0.610354
735,19338,48515,11627,56371,0.17099,0.284998,0.624512,0.284998,0.375488,0.391386,0.227934,1.250358,0.611111
736,19253,48600,11588,56410,0.170417,0.283746,0.624266,0.283746,0.375734,0.390155,0.227021,1.249867,0.61165
737,19226,48627,11563,56435,0.170049,0.283348,0.624444,0.283348,0.375556,0.389814,0.226638,1.250222,0.611842
738,19164,48689,11527,56471,0.16952,0.282434,0.624418,0.282434,0.375582,0.388943,0.225917,1.25017,0.612
739,19099,48754,11477,56521,0.168784,0.281476,0.62464,0.281476,0.37536,0.388077,0.22507,1.250615,0.612069
740,19061,48792,11448,56550,0.168358,0.280916,0.624766,0.280916,0.375234,0.387568,0.224577,1.250868,0.612245
741,18991,48862,11383,56615,0.167402,0.279884,0.625239,0.279884,0.374761,0.386676,0.223583,1.251813,0.612745
742,18896,48957,11337,56661,0.166725,0.278484,0.625012,0.278484,0.374988,0.385295,0.222545,1.25136,0.612903
743,18849,49004,11281,56717,0.165902,0.277792,0.625589,0.277792,0.374411,0.38474,0.221787,1.252515,0.613065
744,18779,49074,11249,56749,0.165431,0.27676,0.625383,0.27676,0.374617,0.383711,0.221036,1.252102,0.613281
745,18697,49156,11179,56819,0.164402,0.275552,0.62582,0.275552,0.37418,0.38263,0.219917,1.252977,0.613333
746,18656,49197,11150,56848,0.163975,0.274947,0.625914,0.274947,0.374086,0.382064,0.219402,1.253166,0.614035
747,18586,49267,11108,56890,0.163358,0.273916,0.625918,0.273916,0.374082,0.381068,0.218578,1.253173,0.61413
748,18524,49329,11074,56924,0.162858,0.273002,0.625853,0.273002,0.374147,0.380171,0.217871,1.253044,0.614286
749,18496,49357,11036,56962,0.162299,0.272589,0.626304,0.272589,0.373696,0.379853,0.217385,1.253946,0.614458
750,18332,49521,10933,57065,0.160784,0.270172,0.626414,0.270172,0.373586,0.37752,0.21542,1.254166,0.614679
751,18299,49554,10910,57088,0.160446,0.269686,0.626485,0.269686,0.373515,0.377058,0.215008,1.254309,0.614719
752,18211,49642,10859,57139,0.159696,0.268389,0.626453,0.268389,0.373547,0.375783,0.213984,1.254245,0.614815
753,18174,49679,10826,57172,0.159211,0.267844,0.62669,0.267844,0.37331,0.37529,0.213469,1.254719,0.614865
754,18125,49728,10803,57195,0.158872,0.267122,0.626556,0.267122,0.373444,0.374557,0.212939,1.25445,0.615044
755,17958,49895,10712,57286,0.157534,0.26466,0.626369,0.26466,0.373631,0.372098,0.21104,1.254077,0.615385
756,17882,49971,10652,57346,0.156652,0.26354,0.626691,0.26354,0.373309,0.371046,0.210039,1.254721,0.615942
757,17811,50042,10600,57398,0.155887,0.262494,0.626905,0.262494,0.373095,0.370045,0.209134,1.25515,0.616352
758,17759,50094,10552,57446,0.155181,0.261728,0.627283,0.261728,0.372717,0.369348,0.208397,1.255906,0.616541
759,17736,50117,10523,57475,0.154755,0.261389,0.627623,0.261389,0.372377,0.369069,0.208015,1.256587,0.616667
760,17686,50167,10458,57540,0.153799,0.260652,0.628411,0.260652,0.371589,0.36847,0.207168,1.258165,0.616949
761,17608,50245,10402,57596,0.152975,0.259502,0.628633,0.259502,0.371367,0.367358,0.206182,1.258609,0.616959
762,17509,50344,10338,57660,0.152034,0.258043,0.628757,0.258043,0.371243,0.365914,0.204982,1.258858,0.617391
763,17456,50397,10296,57702,0.151416,0.257262,0.629,0.257262,0.371,0.365169,0.204283,1.259344,0.617647
764,17288,50565,10137,57861,0.149078,0.254786,0.630374,0.254786,0.369626,0.362896,0.201876,1.262095,0.618048
765,16993,50860,9951,58047,0.146343,0.250438,0.630678,0.250438,0.369322,0.358513,0.198335,1.262705,0.618182
766,16916,50937,9900,58098,0.145593,0.249304,0.630817,0.249304,0.369183,0.357371,0.197393,1.262983,0.618644
767,16889,50964,9870,58128,0.145151,0.248906,0.631152,0.248906,0.368848,0.357016,0.196973,1.263653,0.619048
768,16854,50999,9845,58153,0.144784,0.24839,0.63126,0.24839,0.36874,0.356502,0.196531,1.263868,0.619403
769,16807,51046,9821,58177,0.144431,0.247697,0.631178,0.247697,0.368822,0.355775,0.196009,1.263704,0.62037
770,16779,51074,9802,58196,0.144151,0.247285,0.63124,0.247285,0.36876,0.355359,0.195663,1.26383,0.62069
771,16678,51175,9711,58287,0.142813,0.245796,0.632006,0.245796,0.367994,0.35394,0.19425,1.265362,0.620902
772,16541,51312,9596,58402,0.141122,0.243777,0.632858,0.243777,0.367142,0.351974,0.192395,1.267068,0.621849
773,16500,51353,9566,58432,0.140681,0.243173,0.633009,0.243173,0.366991,0.351367,0.191872,1.26737,0.62234
774,16432,51421,9527,58471,0.140107,0.242171,0.632998,0.242171,0.367002,0.350318,0.191084,1.267349,0.622642
775,16408,51445,9507,58491,0.139813,0.241817,0.633147,0.241817,0.366853,0.34997,0.19076,1.267647,0.623288
776,16367,51486,9477,58521,0.139372,0.241213,0.6333,0.241213,0.3667,0.34936,0.190238,1.267953,0.623853
777,16331,51522,9456,58542,0.139063,0.240682,0.633304,0.240682,0.366696,0.348804,0.189818,1.267961,0.624242
778,16284,51569,9428,58570,0.138651,0.239989,0.633323,0.239989,0.366677,0.348079,0.189266,1.267999,0.624642
779,16203,51650,9368,58630,0.137769,0.238796,0.633647,0.238796,0.366353,0.34687,0.188228,1.268649,0.625
780,16059,51794,9281,58717,0.136489,0.236673,0.633741,0.236673,0.366259,0.34464,0.186528,1.268837,0.625561
781,15927,51926,9178,58820,0.134975,0.234728,0.634415,0.234728,0.365585,0.342671,0.184798,1.270187,0.625641
782,15849,52004,9141,58857,0.13443,0.233578,0.634214,0.233578,0.365786,0.341415,0.183952,1.269783,0.625806
783,15791,52062,9109,58889,0.13396,0.232724,0.634177,0.232724,0.365823,0.340496,0.183289,1.269709,0.625954
784,15753,52100,9073,58925,0.13343,0.232164,0.634536,0.232164,0.365464,0.339948,0.182744,1.270429,0.626087
785,15730,52123,9056,58942,0.13318,0.231825,0.634632,0.231825,0.365368,0.339598,0.18245,1.270621,0.626506
786,15705,52148,9030,58968,0.132798,0.231456,0.63493,0.231456,0.36507,0.339245,0.182074,1.271217,0.626866
787,15674,52179,9010,58988,0.132504,0.230999,0.634986,0.230999,0.365014,0.338762,0.181699,1.271329,0.62766
788,15561,52292,8940,59058,0.131474,0.229334,0.635117,0.229334,0.364883,0.336986,0.180352,1.271591,0.628205
789,15509,52344,8898,59100,0.130857,0.228568,0.635432,0.228568,0.364568,0.336202,0.17966,1.272223,0.628571
790,15420,52433,8849,59149,0.130136,0.227256,0.635378,0.227256,0.364622,0.334773,0.178644,1.272115,0.628713
791,15357,52496,8794,59204,0.129327,0.226328,0.635874,0.226328,0.364126,0.333833,0.177776,1.273107,0.62931
792,15325,52528,8772,59226,0.129004,0.225856,0.635971,0.225856,0.364029,0.333333,0.177378,1.273302,0.62963
793,15183,52670,8668,59330,0.127474,0.223763,0.636577,0.223763,0.363423,0.331131,0.175567,1.274515,0.63
794,15151,52702,8645,59353,0.127136,0.223292,0.636704,0.223292,0.363296,0.330631,0.175162,1.274768,0.630252
795,15126,52727,8624,59374,0.126827,0.222923,0.636884,0.222923,0.363116,0.330251,0.174824,1.275129,0.631579
796,14957,52896,8527,59471,0.125401,0.220432,0.636902,0.220432,0.363098,0.327512,0.172866,1.275164,0.632099
797,14699,53154,8375,59623,0.123165,0.21663,0.637037,0.21663,0.362963,0.323314,0.169848,1.275436,0.632353
798,14646,53207,8332,59666,0.122533,0.215849,0.637392,0.215849,0.362608,0.322489,0.169141,1.276147,0.632653
799,14634,53219,8324,59674,0.122415,0.215672,0.637425,0.215672,0.362575,0.322296,0.168994,1.276212,0.633441
800,14541,53312,8256,59742,0.121415,0.214302,0.637847,0.214302,0.362153,0.320816,0.167809,1.277057,0.633987
801,14484,53369,8231,59767,0.121048,0.213461,0.63764,0.213461,0.36236,0.319848,0.167205,1.276643,0.634783
802,14442,53411,8208,59790,0.120709,0.212842,0.637616,0.212842,0.362384,0.31915,0.166727,1.276594,0.635088
803,14358,53495,8152,59846,0.119886,0.211604,0.63785,0.211604,0.36215,0.317785,0.165696,1.277063,0.635697
804,14234,53619,8071,59927,0.118695,0.209777,0.638153,0.209777,0.361847,0.315757,0.164187,1.277669,0.635838
805,14184,53669,8034,59964,0.118151,0.20904,0.638401,0.20904,0.361599,0.314952,0.163547,1.278167,0.636364
806,14143,53710,8007,59991,0.117753,0.208436,0.63851,0.208436,0.36149,0.314278,0.163046,1.278385,0.636771
807,14065,53788,7963,60035,0.117106,0.207286,0.638506,0.207286,0.361494,0.312969,0.162148,1.278376,0.638037
808,14004,53849,7917,60081,0.11643,0.206387,0.638839,0.206387,0.361161,0.311983,0.161361,1.279044,0.638743
809,13941,53912,7871,60127,0.115753,0.205459,0.639144,0.205459,0.360856,0.310957,0.160558,1.279653,0.639098
810,13819,54034,7793,60205,0.114606,0.203661,0.639413,0.203661,0.360587,0.308925,0.159086,1.280193,0.63964
811,13786,54067,7773,60225,0.114312,0.203175,0.639455,0.203175,0.360545,0.30837,0.158696,1.280276,0.64
812,13773,54080,7756,60242,0.114062,0.202983,0.639742,0.202983,0.360258,0.308183,0.158475,1.280851,0.640777
813,13753,54100,7729,60269,0.113665,0.202688,0.64021,0.202688,0.35979,0.307897,0.158129,1.281789,0.642857
814,13702,54151,7709,60289,0.113371,0.201937,0.639951,0.201937,0.360049,0.306999,0.157606,1.28127,0.643725
815,13636,54217,7672,60326,0.112827,0.200964,0.639947,0.200964,0.360053,0.305874,0.156848,1.281262,0.644444
816,13582,54271,7641,60357,0.112371,0.200168,0.639966,0.200168,0.360034,0.304953,0.156223,1.2813,0.644531
817,13512,54341,7597,60401,0.111724,0.199136,0.640106,0.199136,0.359894,0.30377,0.155383,1.28158,0.644628
818,13480,54373,7575,60423,0.1114,0.198665,0.640228,0.198665,0.359772,0.303235,0.154986,1.281824,0.644809
819,13423,54430,7534,60464,0.110797,0.197825,0.640502,0.197825,0.359498,0.302286,0.154265,1.282373,0.64486
820,13341,54512,7490,60508,0.11015,0.196616,0.64044,0.196616,0.35956,0.300866,0.153337,1.282248,0.644886
821,13223,54630,7400,60598,0.108827,0.194877,0.641177,0.194877,0.358823,0.298906,0.151806,1.283725,0.645455
822,13174,54679,7374,60624,0.108444,0.194155,0.641133,0.194155,0.358867,0.298051,0.151254,1.283636,0.645631
823,13112,54741,7327,60671,0.107753,0.193241,0.641519,0.193241,0.358481,0.297014,0.150452,1.284408,0.646617
824,13068,54785,7314,60684,0.107562,0.192593,0.641154,0.192593,0.358846,0.296209,0.150032,1.283678,0.646789
825,12995,54858,7271,60727,0.10693,0.191517,0.641222,0.191517,0.358778,0.294942,0.149178,1.283814,0.647059
826,12788,55065,7159,60839,0.105283,0.188466,0.641099,0.188466,0.358901,0.291298,0.14683,1.283568,0.647436
827,12628,55225,7084,60914,0.10418,0.186108,0.640625,0.186108,0.359375,0.288426,0.1451,1.282619,0.647482
828,12598,55255,7048,60950,0.10365,0.185666,0.64125,0.185666,0.35875,0.287958,0.144614,1.283871,0.647619
829,12571,55282,7025,60973,0.103312,0.185268,0.641508,0.185268,0.358492,0.287505,0.144246,1.284388,0.648438
830,12492,55361,6985,61013,0.102724,0.184104,0.641372,0.184104,0.358628,0.286087,0.14337,1.284114,0.648649
831,12454,55399,6974,61024,0.102562,0.183544,0.641034,0.183544,0.358966,0.285377,0.14301,1.283437,0.649123
832,12408,55445,6949,61049,0.102194,0.182866,0.641008,0.182866,0.358992,0.284555,0.142487,1.283387,0.649718
833,12363,55490,6911,61087,0.101635,0.182203,0.641434,0.182203,0.358566,0.283793,0.141876,1.284239,0.65
834,12266,55587,6848,61150,0.100709,0.180773,0.641729,0.180773,0.358271,0.282084,0.140698,1.284829,0.650485
835,12222,55631,6836,61162,0.100532,0.180125,0.641305,0.180125,0.358695,0.281253,0.140286,1.283981,0.651163
836,12174,55679,6796,61202,0.099944,0.179417,0.64175,0.179417,0.35825,0.280433,0.139638,1.284872,0.651246
837,12062,55791,6744,61254,0.099179,0.177767,0.641391,0.177767,0.358609,0.278378,0.138431,1.284153,0.651376
838,11960,55893,6668,61330,0.098062,0.176263,0.642044,0.176263,0.357956,0.276593,0.137121,1.28546,0.651685
839,11897,55956,6607,61391,0.097165,0.175335,0.642942,0.175335,0.357058,0.275531,0.136208,1.287258,0.651786
840,11855,55998,6581,61417,0.096782,0.174716,0.643035,0.174716,0.356965,0.274774,0.135708,1.287445,0.652439
841,11783,56070,6548,61450,0.096297,0.173655,0.642791,0.173655,0.357209,0.273438,0.134935,1.286955,0.652482
842,11725,56128,6512,61486,0.095768,0.1728,0.642924,0.1728,0.357076,0.272389,0.134243,1.287221,0.652542
843,11682,56171,6483,61515,0.095341,0.172166,0.643105,0.172166,0.356895,0.271618,0.133713,1.287584,0.652695
844,11626,56227,6456,61542,0.094944,0.171341,0.64296,0.171341,0.35704,0.270577,0.133102,1.287294,0.652941
845,11567,56286,6425,61573,0.094488,0.170471,0.642897,0.170471,0.357103,0.269486,0.132439,1.287168,0.653226
846,11530,56323,6404,61594,0.094179,0.169926,0.642913,0.169926,0.357087,0.268805,0.132012,1.2872,0.653386
847,11467,56386,6342,61656,0.093267,0.168998,0.643888,0.168998,0.356112,0.267727,0.131092,1.289152,0.653696
848,11374,56479,6292,61706,0.092532,0.167627,0.643836,0.167627,0.356164,0.265999,0.13004,1.289047,0.653979
849,11283,56570,6227,61771,0.091576,0.166286,0.644375,0.166286,0.355625,0.264353,0.128891,1.290126,0.654822
850,11218,56635,6185,61813,0.090959,0.165328,0.644602,0.165328,0.355398,0.26316,0.128104,1.290581,0.65625
851,11210,56643,6176,61822,0.090826,0.16521,0.644772,0.16521,0.355228,0.263025,0.127978,1.290921,0.656593
852,10832,57021,5946,62052,0.087444,0.159639,0.645607,0.159639,0.354393,0.255982,0.123503,1.292594,0.656627
853,10786,57067,5908,62090,0.086885,0.158961,0.6461,0.158961,0.3539,0.255148,0.122885,1.293581,0.656716
854,10744,57109,5884,62114,0.086532,0.158342,0.646139,0.158342,0.353861,0.254353,0.122399,1.293659,0.656863
855,10708,57145,5854,62144,0.086091,0.157812,0.64654,0.157812,0.35346,0.253699,0.121913,1.294462,0.657143
856,10661,57192,5818,62180,0.085561,0.157119,0.646945,0.157119,0.353055,0.252834,0.121302,1.295272,0.657955
857,10392,57461,5656,62342,0.083179,0.153155,0.647557,0.153155,0.352443,0.247721,0.118129,1.296498,0.658333
858,10358,57495,5635,62363,0.08287,0.152654,0.647658,0.152654,0.352342,0.247072,0.117725,1.296701,0.659091
859,10304,57549,5610,62388,0.082502,0.151858,0.64748,0.151858,0.35252,0.246016,0.117143,1.296344,0.659155
860,10169,57684,5536,62462,0.081414,0.149868,0.647501,0.149868,0.352499,0.2434,0.115605,1.296385,0.66
861,10106,57747,5499,62499,0.08087,0.14894,0.647613,0.14894,0.352387,0.242182,0.114868,1.29661,0.66065
862,10016,57837,5452,62546,0.080179,0.147613,0.64753,0.147613,0.35247,0.24042,0.11386,1.296445,0.66087
863,9977,57876,5436,62562,0.079944,0.147038,0.647311,0.147038,0.352689,0.239642,0.113455,1.296005,0.661017
864,9941,57912,5404,62594,0.079473,0.146508,0.647833,0.146508,0.352167,0.238972,0.112955,1.297051,0.661538
865,9875,57978,5365,62633,0.078899,0.145535,0.647966,0.145535,0.352034,0.237685,0.112182,1.297316,0.661654
866,9635,58218,5240,62758,0.077061,0.141998,0.647731,0.141998,0.352269,0.232932,0.109495,1.296846,0.662162
867,9588,58265,5220,62778,0.076767,0.141305,0.647488,0.141305,0.352512,0.231984,0.109002,1.296359,0.662566
868,9400,58453,5082,62916,0.074737,0.138535,0.649082,0.138535,0.350918,0.228335,0.106602,1.29955,0.663551
869,9322,58531,5049,62949,0.074252,0.137385,0.648667,0.137385,0.351333,0.226746,0.105785,1.298721,0.664962
870,9208,58645,4970,63028,0.07309,0.135705,0.649457,0.135705,0.350543,0.2245,0.104364,1.300302,0.665535
871,9025,58828,4857,63141,0.071429,0.133008,0.650122,0.133008,0.349878,0.220836,0.102185,1.301634,0.666667
872,8686,59167,4646,63352,0.068326,0.128012,0.651515,0.128012,0.348485,0.21398,0.098137,1.304423,0.668182
873,8618,59235,4594,63404,0.067561,0.12701,0.652286,0.12701,0.347714,0.21262,0.097254,1.305966,0.668367
874,8554,59299,4554,63444,0.066973,0.126067,0.652579,0.126067,0.347421,0.211312,0.096488,1.306552,0.668675
875,8509,59344,4531,63467,0.066634,0.125403,0.652531,0.125403,0.347469,0.210377,0.095988,1.306456,0.669492
876,8458,59395,4495,63503,0.066105,0.124652,0.652976,0.124652,0.347024,0.209341,0.095347,1.307348,0.669565
877,8425,59428,4453,63545,0.065487,0.124165,0.654216,0.124165,0.345784,0.208718,0.094795,1.309831,0.669725
878,8272,59581,4362,63636,0.064149,0.121911,0.654741,0.121911,0.345259,0.205549,0.092999,1.310882,0.67094
879,8192,59661,4319,63679,0.063517,0.120732,0.654784,0.120732,0.345216,0.203872,0.092094,1.310967,0.67284
880,8131,59722,4282,63716,0.062972,0.119833,0.655039,0.119833,0.344961,0.202601,0.091372,1.311478,0.672986
881,7996,59857,4205,63793,0.06184,0.117843,0.655356,0.117843,0.344644,0.199765,0.089812,1.312113,0.673469
882,7947,59906,4177,63821,0.061428,0.117121,0.655477,0.117121,0.344523,0.198732,0.089245,1.312354,0.673529
883,7827,60026,4113,63885,0.060487,0.115352,0.655528,0.115352,0.344472,0.196183,0.08789,1.312456,0.673684
884,7799,60054,4086,63912,0.06009,0.11494,0.656205,0.11494,0.343795,0.195616,0.087486,1.313813,0.67381
885,7658,60195,4003,63995,0.058869,0.112862,0.656719,0.112862,0.343281,0.19262,0.085837,1.314841,0.674242
886,7620,60233,3980,64018,0.058531,0.112302,0.656897,0.112302,0.343103,0.191812,0.085388,1.315197,0.675241
887,7515,60338,3931,64067,0.057811,0.110754,0.656561,0.110754,0.343439,0.189536,0.084254,1.314526,0.675294
888,7372,60481,3874,64124,0.056972,0.108647,0.655522,0.108647,0.344478,0.186399,0.082782,1.312445,0.675439
889,7334,60519,3851,64147,0.056634,0.108087,0.6557,0.108087,0.3443,0.185582,0.082333,1.3128,0.675676
890,7304,60549,3827,64171,0.056281,0.107644,0.656185,0.107644,0.343815,0.184949,0.081935,1.313773,0.675862
891,7255,60598,3798,64200,0.055855,0.106922,0.656383,0.106922,0.343617,0.18389,0.081361,1.314168,0.676301
892,7083,60770,3721,64277,0.054722,0.104387,0.655591,0.104387,0.344409,0.180098,0.079528,1.312582,0.676768
893,7027,60826,3695,64303,0.05434,0.103562,0.655381,0.103562,0.344619,0.178861,0.078925,1.312163,0.676923
894,6964,60889,3663,64335,0.053869,0.102634,0.655312,0.102634,0.344688,0.177472,0.078225,1.312024,0.678218
895,6896,60957,3633,64365,0.053428,0.101631,0.654953,0.101631,0.345047,0.175959,0.077504,1.311306,0.679641
896,6773,61080,3555,64443,0.052281,0.099819,0.65579,0.099819,0.34421,0.173265,0.076024,1.312982,0.68
897,6704,61149,3509,64489,0.051604,0.098802,0.656418,0.098802,0.343582,0.171752,0.075178,1.314239,0.680272
898,6659,61194,3476,64522,0.051119,0.098139,0.65703,0.098139,0.34297,0.17077,0.074604,1.315464,0.680851
899,6646,61207,3466,64532,0.050972,0.097947,0.657239,0.097947,0.342761,0.170487,0.074434,1.315882,0.681034
900,6610,61243,3438,64560,0.05056,0.097416,0.657842,0.097416,0.342158,0.169703,0.073963,1.317091,0.681472
901,6327,61526,3294,64704,0.048443,0.093246,0.657624,0.093246,0.342376,0.163332,0.07082,1.316653,0.681818
902,6287,61566,3269,64729,0.048075,0.092656,0.657911,0.092656,0.342089,0.162436,0.070342,1.317228,0.68254
903,6175,61678,3189,64809,0.046898,0.091006,0.65944,0.091006,0.34056,0.159939,0.068928,1.32029,0.683206
904,6099,61754,3117,64881,0.04584,0.089885,0.661784,0.089885,0.338216,0.158274,0.067839,1.324982,0.683333
905,6080,61773,3101,64897,0.045604,0.089605,0.662237,0.089605,0.337763,0.157852,0.067581,1.32589,0.684783
906,6021,61832,3064,64934,0.04506,0.088736,0.662741,0.088736,0.337259,0.156516,0.066875,1.326898,0.685484
907,5951,61902,3048,64950,0.044825,0.087704,0.661296,0.087704,0.338704,0.154869,0.066242,1.324005,0.685714
908,5904,61949,3027,64971,0.044516,0.087012,0.661068,0.087012,0.338932,0.153782,0.065741,1.323549,0.686131
909,5817,62036,2973,65025,0.043722,0.085729,0.661775,0.085729,0.338225,0.151795,0.064703,1.324964,0.686747
910,5766,62087,2940,65058,0.043237,0.084978,0.662302,0.084978,0.337698,0.150629,0.064085,1.326019,0.6875
911,5724,62129,2910,65088,0.042795,0.084359,0.66296,0.084359,0.33704,0.149672,0.063555,1.327338,0.68861
912,5378,62475,2723,65275,0.040045,0.07926,0.663869,0.07926,0.336131,0.141612,0.059632,1.329156,0.688679
913,5349,62504,2692,65306,0.039589,0.078832,0.665216,0.078832,0.334784,0.14096,0.05919,1.331853,0.689655
914,5312,62541,2668,65330,0.039236,0.078287,0.665664,0.078287,0.334336,0.140097,0.058741,1.332751,0.689922
915,5276,62577,2643,65355,0.038869,0.077756,0.666246,0.077756,0.333754,0.13926,0.058292,1.333915,0.690476
916,5207,62646,2615,65383,0.038457,0.076739,0.665687,0.076739,0.334313,0.137615,0.057578,1.332796,0.690647
917,5178,62675,2588,65410,0.03806,0.076312,0.666753,0.076312,0.333247,0.13695,0.057166,1.33493,0.691552
918,5004,62849,2495,65503,0.036692,0.073748,0.667289,0.073748,0.332711,0.132817,0.0552,1.336004,0.691781
919,4916,62937,2440,65558,0.035883,0.072451,0.668298,0.072451,0.331702,0.130729,0.054148,1.338024,0.692308
920,4758,63095,2362,65636,0.034736,0.070122,0.668258,0.070122,0.331742,0.126926,0.05241,1.337945,0.692946
921,4690,63163,2316,65682,0.03406,0.06912,0.669426,0.06912,0.330574,0.125302,0.051571,1.340283,0.693002
922,4548,63305,2222,65776,0.032677,0.067027,0.671787,0.067027,0.328213,0.121893,0.049834,1.34501,0.693878
923,4532,63321,2212,65786,0.03253,0.066791,0.672005,0.066791,0.327995,0.121506,0.049643,1.345446,0.694581
924,4468,63385,2172,65826,0.031942,0.065848,0.672892,0.065848,0.327108,0.119958,0.048877,1.347221,0.694656
925,4365,63488,2137,65861,0.031427,0.06433,0.671332,0.06433,0.328668,0.11741,0.047861,1.344098,0.694915
926,4303,63550,2116,65882,0.031119,0.063417,0.670354,0.063417,0.329646,0.115871,0.04725,1.34214,0.695238
927,4281,63572,2098,65900,0.030854,0.063092,0.671108,0.063092,0.328892,0.115341,0.046956,1.343651,0.697531
928,4223,63630,2065,65933,0.030369,0.062237,0.671597,0.062237,0.328403,0.113918,0.046286,1.344629,0.697987
929,4167,63686,2025,65973,0.02978,0.061412,0.672965,0.061412,0.327035,0.112553,0.045579,1.347368,0.698795
930,4108,63745,2005,65993,0.029486,0.060543,0.67201,0.060543,0.32799,0.111078,0.044998,1.345457,0.699029
931,4065,63788,1986,66012,0.029207,0.059909,0.67179,0.059909,0.32821,0.110008,0.044541,1.345015,0.7
932,4023,63830,1963,66035,0.028868,0.05929,0.672068,0.05929,0.327932,0.108967,0.044063,1.345573,0.700935
933,3988,63865,1940,66058,0.02853,0.058774,0.67274,0.058774,0.32726,0.108104,0.043636,1.346917,0.701299
934,3957,63896,1928,66070,0.028354,0.058317,0.672387,0.058317,0.327613,0.107326,0.04332,1.346212,0.701357
935,3807,64046,1860,66138,0.027354,0.056107,0.671784,0.056107,0.328216,0.103564,0.041715,1.345004,0.701493
936,3765,64088,1830,66168,0.026913,0.055488,0.672922,0.055488,0.327078,0.102522,0.041185,1.347283,0.701754
937,3733,64120,1822,66176,0.026795,0.055016,0.672007,0.055016,0.327993,0.101706,0.04089,1.34545,0.701923
938,3656,64197,1794,66204,0.026383,0.053881,0.670826,0.053881,0.329174,0.09975,0.040117,1.343085,0.703448
939,3608,64245,1767,66231,0.025986,0.053174,0.671256,0.053174,0.328744,0.098542,0.039565,1.343946,0.704174
940,3416,64437,1685,66313,0.02478,0.050344,0.669673,0.050344,0.330327,0.093648,0.037548,1.340776,0.705882
941,3379,64474,1651,66347,0.02428,0.049799,0.671769,0.049799,0.328231,0.092724,0.037026,1.344974,0.70625
942,3332,64521,1628,66370,0.023942,0.049106,0.671774,0.049106,0.328226,0.091522,0.036511,1.344984,0.706522
943,3302,64551,1605,66393,0.023604,0.048664,0.672916,0.048664,0.327084,0.090764,0.03612,1.34727,0.707182
944,3245,64608,1568,66430,0.02306,0.047824,0.674216,0.047824,0.325784,0.089313,0.035429,1.349872,0.707547
945,3210,64643,1544,66454,0.022707,0.047308,0.675221,0.047308,0.324779,0.088421,0.034994,1.351885,0.707602
946,3151,64702,1519,66479,0.022339,0.046439,0.674732,0.046439,0.325268,0.086897,0.034376,1.350907,0.708333
947,3141,64712,1514,66484,0.022265,0.046291,0.674758,0.046291,0.325242,0.086639,0.034265,1.350959,0.710197
948,2968,64885,1417,66581,0.020839,0.043742,0.676853,0.043742,0.323147,0.082173,0.032278,1.355152,0.711628
949,2908,64945,1386,66612,0.020383,0.042857,0.677224,0.042857,0.322776,0.080613,0.031608,1.355895,0.714286
950,2866,64987,1371,66627,0.020162,0.042238,0.676422,0.042238,0.323578,0.079512,0.031189,1.354289,0.715719
951,2760,65093,1306,66692,0.019206,0.040676,0.6788,0.040676,0.3212,0.076753,0.02993,1.35905,0.717213
952,2688,65165,1265,66733,0.018603,0.039615,0.67999,0.039615,0.32001,0.074868,0.029098,1.361433,0.717949
953,2652,65201,1253,66745,0.018427,0.039084,0.679129,0.039084,0.320871,0.073915,0.028745,1.35971,0.71831
954,2625,65228,1232,66766,0.018118,0.038687,0.680581,0.038687,0.319419,0.073212,0.028391,1.362616,0.71875
955,2621,65232,1224,66774,0.018001,0.038628,0.681664,0.038628,0.318336,0.073112,0.028303,1.364786,0.719512
956,2610,65243,1212,66786,0.017824,0.038466,0.682889,0.038466,0.317111,0.072829,0.028134,1.367236,0.719626
957,2572,65281,1202,66796,0.017677,0.037905,0.681505,0.037905,0.318495,0.071816,0.02778,1.364466,0.72
958,2523,65330,1166,66832,0.017148,0.037183,0.683925,0.037183,0.316075,0.070532,0.027155,1.369312,0.720755
959,2434,65419,1125,66873,0.016545,0.035872,0.6839,0.035872,0.3161,0.068168,0.026198,1.369261,0.721212
960,2383,65470,1102,66896,0.016206,0.03512,0.683788,0.03512,0.316212,0.066809,0.025653,1.369037,0.721311
961,2355,65498,1082,66916,0.015912,0.034707,0.685191,0.034707,0.314809,0.066068,0.0253,1.371845,0.723077
962,2339,65514,1070,66928,0.015736,0.034472,0.686125,0.034472,0.313875,0.065645,0.025094,1.373716,0.725
963,2301,65552,1048,66950,0.015412,0.033912,0.687071,0.033912,0.312929,0.064633,0.024652,1.37561,0.72549
964,2288,65565,1042,66956,0.015324,0.03372,0.687087,0.03372,0.312913,0.064285,0.024512,1.375642,0.725664
965,2255,65598,1023,66975,0.015045,0.033234,0.687919,0.033234,0.312081,0.063404,0.024129,1.377309,0.72619
966,2192,65661,999,66999,0.014692,0.032305,0.686932,0.032305,0.313068,0.061708,0.023489,1.375332,0.726563
967,2150,65703,979,67019,0.014397,0.031686,0.68712,0.031686,0.31288,0.060579,0.023033,1.375709,0.727273
968,2120,65733,964,67034,0.014177,0.031244,0.687419,0.031244,0.312581,0.059771,0.022701,1.376307,0.72807
969,2068,65785,945,67053,0.013897,0.030478,0.686359,0.030478,0.313641,0.058364,0.022179,1.374185,0.729167
970,2023,65830,931,67067,0.013692,0.029814,0.684834,0.029814,0.315166,0.057141,0.021744,1.371132,0.730337
971,1973,65880,899,67099,0.013221,0.029078,0.686978,0.029078,0.313022,0.055794,0.021141,1.375423,0.730496
972,1906,65947,882,67116,0.012971,0.02809,0.683644,0.02809,0.316356,0.053963,0.020522,1.368749,0.733333
973,1898,65955,877,67121,0.012897,0.027972,0.683964,0.027972,0.316036,0.053746,0.020427,1.36939,0.733813
974,1845,66008,854,67144,0.012559,0.027191,0.683587,0.027191,0.316413,0.052302,0.019867,1.368634,0.73516
975,1772,66081,822,67176,0.012089,0.026115,0.683115,0.026115,0.316885,0.050307,0.019094,1.36769,0.738562
976,1730,66123,797,67201,0.011721,0.025496,0.684606,0.025496,0.315394,0.049162,0.018601,1.370675,0.738806
977,1689,66164,767,67231,0.01128,0.024892,0.687704,0.024892,0.312296,0.048045,0.018079,1.376877,0.739011
978,1553,66300,697,67301,0.01025,0.022888,0.690222,0.022888,0.309778,0.044306,0.016562,1.381919,0.73913
979,1536,66317,688,67310,0.010118,0.022637,0.690647,0.022637,0.309353,0.043837,0.016371,1.382771,0.740385
980,1488,66365,660,67338,0.009706,0.02193,0.692737,0.02193,0.307263,0.042514,0.015811,1.386955,0.741935
981,1445,66408,627,67371,0.009221,0.021296,0.697394,0.021296,0.302606,0.04133,0.015252,1.396278,0.744493
982,1344,66509,585,67413,0.008603,0.019808,0.696734,0.019808,0.303266,0.03852,0.014199,1.394957,0.747899
983,1308,66545,560,67438,0.008236,0.019277,0.700214,0.019277,0.299786,0.037521,0.01375,1.401925,0.748571
984,1263,66590,533,67465,0.007838,0.018614,0.703229,0.018614,0.296771,0.036268,0.01322,1.407962,0.75
985,1176,66677,496,67502,0.007294,0.017332,0.703349,0.017332,0.296651,0.03383,0.012308,1.408202,0.751773
986,1128,66725,471,67527,0.006927,0.016624,0.705441,0.016624,0.294559,0.032483,0.01177,1.412389,0.753463
987,996,66857,424,67574,0.006235,0.014679,0.701408,0.014679,0.298592,0.028756,0.010453,1.404316,0.754717
988,981,66872,417,67581,0.006133,0.014458,0.701717,0.014458,0.298283,0.028332,0.010291,1.404933,0.755365
989,892,66961,365,67633,0.005368,0.013146,0.709626,0.013146,0.290374,0.025814,0.009253,1.420769,0.756757
990,887,66966,355,67643,0.005221,0.013072,0.714171,0.013072,0.285829,0.025675,0.009142,1.429868,0.758389
991,835,67018,326,67672,0.004794,0.012306,0.719208,0.012306,0.280792,0.024198,0.008546,1.439952,0.761905
992,799,67054,316,67682,0.004647,0.011775,0.716592,0.011775,0.283408,0.02317,0.008208,1.434715,0.763636
993,745,67108,290,67708,0.004265,0.01098,0.719807,0.01098,0.280193,0.021629,0.007619,1.441152,0.763948
994,663,67190,250,67748,0.003677,0.009771,0.726177,0.009771,0.273823,0.019283,0.006721,1.453907,0.764706
995,631,67222,239,67759,0.003515,0.0093,0.725287,0.0093,0.274713,0.018364,0.006404,1.452125,0.766355
996,598,67255,229,67769,0.003368,0.008813,0.723096,0.008813,0.276904,0.017414,0.006088,1.447736,0.768
997,559,67294,213,67785,0.003132,0.008238,0.724093,0.008238,0.275907,0.016291,0.005683,1.449734,0.769231
998,539,67314,207,67791,0.003044,0.007944,0.72252,0.007944,0.27748,0.015715,0.005491,1.446584,0.771429
999,505,67348,191,67807,0.002809,0.007443,0.725575,0.007443,0.274425,0.014734,0.005123,1.4527,0.774194
1000,494,67359,188,67810,0.002765,0.00728,0.72434,0.00728,0.27566,0.014416,0.00502,1.450228,0.777778
1001,493,67360,184,67814,0.002706,0.007266,0.728213,0.007266,0.271787,0.014388,0.004983,1.457982,0.78
1002,425,67428,162,67836,0.002382,0.006264,0.72402,0.006264,0.27598,0.01242,0.004321,1.449588,0.782051
1003,391,67462,154,67844,0.002265,0.005762,0.717431,0.005762,0.282569,0.011433,0.004012,1.436396,0.782609
1004,384,67469,149,67849,0.002191,0.005659,0.72045,0.005659,0.27955,0.01123,0.003923,1.44244,0.788732
1005,336,67517,124,67874,0.001824,0.004952,0.730435,0.004952,0.269565,0.009837,0.003386,1.46243,0.792453
1006,295,67558,111,67887,0.001632,0.004348,0.726601,0.004348,0.273399,0.008644,0.002989,1.454755,0.792683
1007,265,67588,98,67900,0.001441,0.003906,0.730028,0.003906,0.269972,0.007769,0.002672,1.461615,0.793103
1008,253,67600,94,67904,0.001382,0.003729,0.729107,0.003729,0.270893,0.007419,0.002554,1.459771,0.8
1009,243,67610,87,67911,0.001279,0.003581,0.736364,0.003581,0.263636,0.007128,0.002429,1.474301,0.808333
1010,200,67653,70,67928,0.001029,0.002948,0.740741,0.002948,0.259259,0.005872,0.001987,1.483064,0.813953
1011,175,67678,63,67935,0.000926,0.002579,0.735294,0.002579,0.264706,0.00514,0.001752,1.47216,0.818182
1012,159,67694,53,67945,0.000779,0.002343,0.75,0.002343,0.25,0.004672,0.001561,1.501603,0.820144
1013,113,67740,38,67960,0.000559,0.001665,0.748344,0.001665,0.251656,0.003323,0.001112,1.498288,0.848485
1014,101,67752,33,67965,0.000485,0.001489,0.753731,0.001489,0.246269,0.002971,0.000986,1.509073,0.857143
1015,100,67753,32,67966,0.000471,0.001474,0.757576,0.001474,0.242424,0.002942,0.000972,1.51677,0.861111
1016,86,67767,27,67971,0.000397,0.001267,0.761062,0.001267,0.238938,0.002531,0.000832,1.52375,0.862069
1017,76,67777,21,67977,0.000309,0.00112,0.783505,0.00112,0.216495,0.002237,0.000714,1.568685,0.866667
1018,62,67791,19,67979,0.000279,0.000914,0.765432,0.000914,0.234568,0.001825,0.000596,1.5325,0.872727
1019,45,67808,11,67987,0.000162,0.000663,0.803571,0.000663,0.196429,0.001325,0.000412,1.60886,0.90625
1020,29,67824,9,67989,0.000132,0.000427,0.763158,0.000427,0.236842,0.000854,0.00028,1.527947,0.9375
1021,26,67827,4,67994,0.000059,0.000383,0.866667,0.000383,0.133333,0.000766,0.000221,1.735185,1
1022,0,67853,0,67998,0,0,?,0,?,?,0,?,1.00001