@relation ThresholdCurve

@attribute Instance_number numeric
@attribute 'True Positives' numeric
@attribute 'False Negatives' numeric
@attribute 'False Positives' numeric
@attribute 'True Negatives' numeric
@attribute 'False Positive Rate' numeric
@attribute 'True Positive Rate' numeric
@attribute Precision numeric
@attribute Recall numeric
@attribute Fallout numeric
@attribute FMeasure numeric
@attribute 'Sample Size' numeric
@attribute Lift numeric
@attribute Threshold numeric

@data
0,67853,0,67998,0,1,1,0.499466,1,0.500534,0.666192,1,1,0
1,67825,28,67701,297,0.995632,0.999587,0.500457,0.999587,0.499543,0.666981,0.997608,1.001984,0.02439
2,67822,31,67671,327,0.995191,0.999543,0.500557,0.999543,0.499443,0.66706,0.997365,1.002184,0.046512
3,67819,34,67657,341,0.994985,0.999499,0.500598,0.999499,0.499402,0.667086,0.99724,1.002266,0.05
4,67816,37,67637,361,0.994691,0.999455,0.500661,0.999455,0.499339,0.667132,0.99707,1.002391,0.05102
5,67813,40,67623,375,0.994485,0.99941,0.500701,0.99941,0.499299,0.667159,0.996945,1.002473,0.051282
6,67810,43,67610,388,0.994294,0.999366,0.500738,0.999366,0.499262,0.667182,0.996827,1.002547,0.051613
7,67808,45,67589,409,0.993985,0.999337,0.500809,0.999337,0.499191,0.667237,0.996658,1.002688,0.052632
8,67802,51,67554,444,0.99347,0.999248,0.500916,0.999248,0.499084,0.667313,0.996356,1.002903,0.057143
9,67799,54,67542,456,0.993294,0.999204,0.500949,0.999204,0.499051,0.667333,0.996246,1.002969,0.060606
10,67796,57,67533,465,0.993162,0.99916,0.500972,0.99916,0.499028,0.667343,0.996158,1.003014,0.0625
11,67780,73,67458,540,0.992059,0.998924,0.50119,0.998924,0.49881,0.667484,0.995488,1.003452,0.066667
12,67771,82,67427,571,0.991603,0.998792,0.501272,0.998792,0.498728,0.667527,0.995193,1.003616,0.069767
13,67767,86,67382,616,0.990941,0.998733,0.501424,0.998733,0.498576,0.667649,0.994833,1.00392,0.071429
14,67764,89,67373,625,0.990809,0.998688,0.501447,0.998688,0.498553,0.667659,0.994744,1.003965,0.073171
15,67757,96,67361,637,0.990632,0.998585,0.501465,0.998585,0.498535,0.667652,0.994604,1.004002,0.075342
16,67751,102,67341,657,0.990338,0.998497,0.501517,0.998497,0.498483,0.667678,0.994413,1.004107,0.075472
17,67739,114,67304,694,0.989794,0.99832,0.501611,0.99832,0.498389,0.667721,0.994052,1.004293,0.076923
18,67724,129,67277,721,0.989397,0.998099,0.501656,0.998099,0.498344,0.667712,0.993743,1.004383,0.083333
19,67720,133,67248,750,0.98897,0.99804,0.501749,0.99804,0.498251,0.667781,0.9935,1.004569,0.085106
20,67714,139,67231,767,0.98872,0.997951,0.50179,0.997951,0.49821,0.667798,0.993331,1.004652,0.085714
21,67708,145,67201,797,0.988279,0.997863,0.501879,0.997863,0.498121,0.667857,0.993066,1.004831,0.090164
22,67707,146,67183,815,0.988014,0.997848,0.501942,0.997848,0.498058,0.66791,0.992926,1.004957,0.090909
23,67697,156,67143,855,0.987426,0.997701,0.502054,0.997701,0.497946,0.667976,0.992558,1.005181,0.093023
24,67696,157,67117,881,0.987044,0.997686,0.502147,0.997686,0.497853,0.668055,0.992359,1.005368,0.096774
25,67690,163,67081,917,0.986514,0.997598,0.502259,0.997598,0.497741,0.668134,0.99205,1.005592,0.098039
26,67685,168,67057,941,0.986161,0.997524,0.50233,0.997524,0.49767,0.66818,0.991837,1.005734,0.1
27,67683,170,67044,954,0.98597,0.997495,0.502371,0.997495,0.497629,0.66821,0.991726,1.005816,0.102564
28,67681,172,67024,974,0.985676,0.997465,0.502439,0.997465,0.497561,0.668263,0.991564,1.005951,0.103448
29,67675,178,66972,1026,0.984911,0.997377,0.502611,0.997377,0.497389,0.668395,0.991137,1.006295,0.107143
30,67670,183,66947,1051,0.984544,0.997303,0.502685,0.997303,0.497315,0.668445,0.990917,1.006445,0.108108
31,67663,190,66906,1092,0.983941,0.9972,0.502813,0.9972,0.497187,0.668534,0.990563,1.0067,0.108911
32,67662,191,66881,1117,0.983573,0.997185,0.502902,0.997185,0.497098,0.66861,0.990372,1.00688,0.109091
33,67658,195,66855,1143,0.983191,0.997126,0.502985,0.997126,0.497015,0.66867,0.990151,1.007045,0.111111
34,67653,200,66838,1160,0.982941,0.997052,0.50303,0.997052,0.49697,0.668693,0.989989,1.007135,0.113208
35,67649,204,66815,1183,0.982602,0.996994,0.503101,0.996994,0.496899,0.668743,0.98979,1.007278,0.113636
36,67630,223,66764,1234,0.981852,0.996713,0.503222,0.996713,0.496778,0.668786,0.989275,1.007519,0.114286
37,67624,229,66750,1248,0.981647,0.996625,0.503252,0.996625,0.496748,0.668793,0.989128,1.00758,0.116279
38,67614,239,66728,1270,0.981323,0.996478,0.503298,0.996478,0.496702,0.6688,0.988892,1.007671,0.117647
39,67609,244,66693,1305,0.980808,0.996404,0.50341,0.996404,0.49659,0.668883,0.988598,1.007896,0.12
40,67605,248,66677,1321,0.980573,0.996345,0.503455,0.996345,0.496545,0.668909,0.988451,1.007987,0.121212
41,67601,252,66659,1339,0.980308,0.996286,0.503508,0.996286,0.496492,0.668943,0.988289,1.008092,0.121622
42,67595,258,66629,1369,0.979867,0.996198,0.503598,0.996198,0.496402,0.669002,0.988024,1.008273,0.123077
43,67588,265,66611,1387,0.979602,0.996094,0.50364,0.996094,0.49636,0.669016,0.98784,1.008356,0.125
44,67576,277,66592,1406,0.979323,0.995918,0.503667,0.995918,0.496333,0.669,0.987611,1.00841,0.126984
45,67569,284,66577,1421,0.979102,0.995814,0.503697,0.995814,0.496303,0.669003,0.987449,1.008471,0.129032
46,67561,292,66520,1478,0.978264,0.995697,0.503882,0.995697,0.496118,0.669139,0.986971,1.008841,0.129412
47,67542,311,66489,1509,0.977808,0.995417,0.503928,0.995417,0.496072,0.669117,0.986603,1.008933,0.12987
48,67532,321,66456,1542,0.977323,0.995269,0.504015,0.995269,0.495985,0.66916,0.986286,1.009108,0.131148
49,67518,335,66407,1591,0.976602,0.995063,0.504148,0.995063,0.495852,0.669231,0.985823,1.009373,0.132075
50,67515,338,66383,1615,0.976249,0.995019,0.504227,0.995019,0.495773,0.66929,0.985624,1.009532,0.133333
51,67496,357,66327,1671,0.975426,0.994739,0.504368,0.994739,0.495632,0.669351,0.985072,1.009813,0.135135
52,67491,362,66311,1687,0.97519,0.994665,0.50441,0.994665,0.49559,0.669371,0.984917,1.009897,0.136986
53,67481,372,66284,1714,0.974793,0.994518,0.504474,0.994518,0.495526,0.669395,0.984645,1.010027,0.139535
54,67477,376,66256,1742,0.974382,0.994459,0.504565,0.994459,0.495435,0.669461,0.984409,1.010208,0.14
55,67469,384,66239,1759,0.974132,0.994341,0.5046,0.994341,0.4954,0.669465,0.984225,1.010277,0.141026
56,67465,388,66196,1802,0.973499,0.994282,0.504747,0.994282,0.495253,0.669581,0.983879,1.010573,0.142857
57,67412,441,66091,1907,0.971955,0.993501,0.504947,0.993501,0.495053,0.66958,0.982716,1.010974,0.145833
58,67404,449,66067,1931,0.971602,0.993383,0.505009,0.993383,0.494991,0.669607,0.982481,1.011096,0.146341
59,67400,453,66042,1956,0.971234,0.993324,0.505088,0.993324,0.494912,0.669664,0.982267,1.011256,0.147059
60,67395,458,66026,1972,0.970999,0.99325,0.50513,0.99325,0.49487,0.669684,0.982113,1.01134,0.147727
61,67389,464,65999,1999,0.970602,0.993162,0.50521,0.993162,0.49479,0.669734,0.98187,1.0115,0.148148
62,67383,470,65982,2016,0.970352,0.993073,0.505253,0.993073,0.494747,0.669751,0.981701,1.011585,0.148936
63,67375,478,65967,2031,0.970131,0.992955,0.50528,0.992955,0.49472,0.669748,0.981531,1.011639,0.15
64,67371,482,65951,2047,0.969896,0.992896,0.505325,0.992896,0.494675,0.669775,0.981384,1.011731,0.150685
65,67362,491,65928,2070,0.969558,0.992764,0.505379,0.992764,0.494621,0.669792,0.981148,1.011838,0.151515
66,67352,501,65892,2106,0.969029,0.992616,0.505479,0.992616,0.494521,0.669846,0.98081,1.012038,0.152542
67,67341,512,65877,2121,0.968808,0.992454,0.505495,0.992454,0.494505,0.669823,0.980618,1.01207,0.153846
68,67330,523,65826,2172,0.968058,0.992292,0.505648,0.992292,0.494352,0.66992,0.980162,1.012376,0.154255
69,67325,528,65804,2194,0.967734,0.992218,0.505713,0.992218,0.494287,0.66996,0.979963,1.012506,0.15493
70,67321,532,65774,2224,0.967293,0.99216,0.505812,0.99216,0.494188,0.670034,0.979713,1.012704,0.155172
71,67310,543,65748,2250,0.966911,0.991997,0.50587,0.991997,0.49413,0.670048,0.979441,1.01282,0.155556
72,67302,551,65731,2267,0.966661,0.99188,0.505905,0.99188,0.494095,0.670052,0.979257,1.01289,0.155963
73,67294,559,65688,2310,0.966028,0.991762,0.506038,0.991762,0.493962,0.670142,0.978881,1.013158,0.15625
74,67274,579,65636,2362,0.965264,0.991467,0.506162,0.991467,0.493838,0.670183,0.978351,1.013406,0.156863
75,67272,581,65619,2379,0.965014,0.991437,0.506219,0.991437,0.493781,0.670227,0.978211,1.013521,0.157692
76,67257,596,65582,2416,0.96447,0.991216,0.506305,0.991216,0.493695,0.670251,0.977829,1.013691,0.157895
77,67253,600,65569,2429,0.964278,0.991157,0.506339,0.991157,0.493661,0.670268,0.977704,1.013761,0.16129
78,67244,609,65549,2449,0.963984,0.991025,0.506382,0.991025,0.493618,0.670275,0.97749,1.013846,0.161765
79,67225,628,65526,2472,0.963646,0.990745,0.506399,0.990745,0.493601,0.670226,0.977181,1.013881,0.162162
80,67213,640,65489,2509,0.963102,0.990568,0.506496,0.990568,0.493504,0.67027,0.97682,1.014074,0.163265
81,67204,649,65456,2542,0.962617,0.990435,0.506588,0.990435,0.493412,0.670321,0.976511,1.014259,0.163934
82,67189,664,65404,2594,0.961852,0.990214,0.506731,0.990214,0.493269,0.670395,0.976018,1.014545,0.164179
83,67180,673,65380,2618,0.961499,0.990081,0.506789,0.990081,0.493211,0.670416,0.975775,1.014662,0.164706
84,67169,684,65351,2647,0.961072,0.989919,0.506859,0.989919,0.493141,0.67044,0.97548,1.014802,0.164773
85,67159,694,65330,2668,0.960764,0.989772,0.506902,0.989772,0.493098,0.670444,0.975252,1.014888,0.166667
86,67111,742,65237,2761,0.959396,0.989065,0.50708,0.989065,0.49292,0.670436,0.974214,1.015243,0.168016
87,67099,754,65189,2809,0.95869,0.988888,0.507219,0.988888,0.492781,0.670517,0.973773,1.015522,0.168831
88,67092,761,65163,2835,0.958308,0.988785,0.507293,0.988785,0.492707,0.670558,0.97353,1.01567,0.171429
89,67077,776,65119,2879,0.957661,0.988564,0.507406,0.988564,0.492594,0.670606,0.973096,1.015896,0.171642
90,67070,783,65106,2892,0.957469,0.98846,0.507429,0.98846,0.492571,0.670603,0.972948,1.015943,0.172414
91,67065,788,65079,2919,0.957072,0.988387,0.507515,0.988387,0.492485,0.67066,0.972713,1.016114,0.173077
92,67061,792,65061,2937,0.956808,0.988328,0.507569,0.988328,0.492431,0.670694,0.972551,1.016222,0.175
93,67045,808,65037,2961,0.956455,0.988092,0.507601,0.988092,0.492399,0.670668,0.972256,1.016287,0.178082
94,67033,820,65007,2991,0.956013,0.987915,0.507672,0.987915,0.492328,0.670689,0.971947,1.016429,0.178571
95,67025,828,64953,3045,0.955219,0.987797,0.50785,0.987797,0.49215,0.670817,0.971491,1.016785,0.179487
96,67014,839,64924,3074,0.954793,0.987635,0.50792,0.987635,0.49208,0.670841,0.971196,1.016926,0.180952
97,67003,850,64880,3118,0.954146,0.987473,0.508049,0.987473,0.491951,0.670916,0.970792,1.017183,0.181818
98,66988,865,64841,3157,0.953572,0.987252,0.508143,0.987252,0.491857,0.670947,0.970394,1.017372,0.183673
99,66982,871,64821,3177,0.953278,0.987163,0.508198,0.987163,0.491802,0.670974,0.970203,1.017482,0.184211
100,66968,885,64784,3214,0.952734,0.986957,0.508288,0.986957,0.491712,0.671005,0.969827,1.017663,0.185185
101,66958,895,64771,3227,0.952543,0.98681,0.508301,0.98681,0.491699,0.670982,0.969658,1.017688,0.186047
102,66949,904,64736,3262,0.952028,0.986677,0.508403,0.986677,0.491597,0.67104,0.969334,1.017892,0.1875
103,66941,912,64703,3295,0.951543,0.986559,0.5085,0.986559,0.4915,0.671098,0.969032,1.018087,0.188679
104,66916,937,64647,3351,0.950719,0.986191,0.508623,0.986191,0.491377,0.67112,0.968436,1.018333,0.188889
105,66908,945,64610,3388,0.950175,0.986073,0.508736,0.986073,0.491264,0.671191,0.968105,1.01856,0.189189
106,66897,956,64575,3423,0.94966,0.985911,0.508831,0.985911,0.491169,0.671235,0.967766,1.018749,0.189655
107,66890,963,64553,3445,0.949337,0.985808,0.50889,0.985808,0.49111,0.671263,0.967553,1.018867,0.190476
108,66868,985,64534,3464,0.949057,0.985483,0.508881,0.985483,0.491119,0.67118,0.967251,1.01885,0.191489
109,66861,992,64514,3484,0.948763,0.98538,0.508932,0.98538,0.491068,0.671201,0.967052,1.018952,0.192982
110,66848,1005,64466,3532,0.948057,0.985189,0.50907,0.985189,0.49093,0.671276,0.966603,1.019228,0.193548
111,66835,1018,64438,3560,0.947646,0.984997,0.50913,0.984997,0.49087,0.671284,0.966301,1.019348,0.194444
112,66832,1021,64432,3566,0.947557,0.984953,0.509142,0.984953,0.490858,0.671284,0.966235,1.019372,0.195266
113,66790,1063,64368,3630,0.946616,0.984334,0.509233,0.984334,0.490767,0.671219,0.965455,1.019554,0.195652
114,66780,1073,64313,3685,0.945807,0.984186,0.509409,0.984186,0.490591,0.671338,0.964976,1.019907,0.196078
115,66740,1113,64229,3769,0.944572,0.983597,0.509586,0.983597,0.490414,0.671354,0.964064,1.020261,0.196262
116,66731,1122,64195,3803,0.944072,0.983464,0.509685,0.983464,0.490315,0.671409,0.963747,1.020459,0.196429
117,66718,1135,64175,3823,0.943778,0.983273,0.509714,0.983273,0.490286,0.67139,0.963504,1.020517,0.197674
118,66700,1153,64144,3854,0.943322,0.983007,0.509767,0.983007,0.490233,0.671374,0.963143,1.020624,0.2
119,66547,1306,63756,4242,0.937616,0.980753,0.51071,0.980753,0.48929,0.671663,0.959161,1.022511,0.201835
120,66534,1319,63708,4290,0.93691,0.980561,0.510849,0.980561,0.489151,0.671738,0.958712,1.02279,0.202247
121,66517,1336,63676,4322,0.936439,0.98031,0.510911,0.98031,0.489089,0.671733,0.958351,1.022913,0.203704
122,66512,1341,63662,4336,0.936233,0.980237,0.510947,0.980237,0.489053,0.671747,0.958212,1.022986,0.203911
123,66486,1367,63587,4411,0.93513,0.979854,0.511144,0.979854,0.488856,0.671827,0.957468,1.02338,0.204545
124,66474,1379,63557,4441,0.934689,0.979677,0.511217,0.979677,0.488783,0.671848,0.957159,1.023526,0.205
125,66468,1385,63525,4473,0.934219,0.979588,0.51132,0.979588,0.48868,0.671917,0.956879,1.023732,0.205128
126,66465,1388,63493,4505,0.933748,0.979544,0.511434,0.979544,0.488566,0.672005,0.956622,1.023962,0.205479
127,66460,1393,63471,4527,0.933425,0.97947,0.511502,0.97947,0.488498,0.672046,0.956423,1.024098,0.205882
128,66448,1405,63454,4544,0.933175,0.979293,0.511524,0.979293,0.488476,0.672023,0.956209,1.024141,0.206349
129,66417,1436,63393,4605,0.932277,0.978837,0.511648,0.978837,0.488352,0.672023,0.955532,1.024389,0.206897
130,66408,1445,63386,4612,0.932174,0.978704,0.511642,0.978704,0.488358,0.671986,0.955414,1.024376,0.207547
131,66368,1485,63271,4727,0.930483,0.978114,0.511945,0.978114,0.488055,0.672108,0.954273,1.024983,0.208333
132,66358,1495,63232,4766,0.92991,0.977967,0.512061,0.977967,0.487939,0.672174,0.953913,1.025216,0.208955
133,66347,1506,63215,4783,0.92966,0.977805,0.512087,0.977805,0.487913,0.672158,0.953707,1.025268,0.209677
134,66326,1527,63147,4851,0.92866,0.977495,0.512277,0.977495,0.487723,0.672248,0.953052,1.025648,0.210526
135,66311,1542,63117,4881,0.928218,0.977274,0.512339,0.977274,0.487661,0.672249,0.95272,1.025773,0.211382
136,66302,1551,63085,4913,0.927748,0.977142,0.512432,0.977142,0.487568,0.672298,0.952418,1.025958,0.211538
137,66289,1564,63062,4936,0.92741,0.97695,0.512474,0.97695,0.487526,0.672289,0.952153,1.026043,0.211679
138,66273,1580,63015,4983,0.926718,0.976714,0.5126,0.976714,0.4874,0.672341,0.95169,1.026295,0.212121
139,66252,1601,62983,5015,0.926248,0.976405,0.512648,0.976405,0.487352,0.672309,0.9513,1.026391,0.213115
140,66229,1624,62953,5045,0.925807,0.976066,0.51268,0.976066,0.48732,0.672256,0.950909,1.026455,0.213333
141,66220,1633,62927,5071,0.925424,0.975933,0.512749,0.975933,0.487251,0.672284,0.950652,1.026594,0.214286
142,66190,1663,62851,5147,0.924307,0.975491,0.512938,0.975491,0.487062,0.672341,0.949872,1.026972,0.215385
143,66173,1680,62793,5205,0.923454,0.975241,0.513104,0.975241,0.486896,0.672425,0.949319,1.027305,0.21547
144,66147,1706,62715,5283,0.922307,0.974857,0.513317,0.974857,0.486683,0.672516,0.948554,1.02773,0.215686
145,66143,1710,62695,5303,0.922012,0.974798,0.513381,0.974798,0.486619,0.672557,0.948377,1.027859,0.216028
146,66124,1729,62655,5343,0.921424,0.974518,0.513469,0.974518,0.486531,0.672566,0.947943,1.028035,0.216216
147,66112,1741,62644,5354,0.921262,0.974342,0.513467,0.974342,0.486533,0.672523,0.947774,1.028032,0.216418
148,66105,1748,62627,5371,0.921012,0.974238,0.513509,0.974238,0.486491,0.672534,0.947597,1.028115,0.217391
149,66052,1801,62518,5480,0.919409,0.973457,0.513743,0.973457,0.486257,0.672549,0.946405,1.028585,0.217687
150,66029,1824,62463,5535,0.918601,0.973118,0.513876,0.973118,0.486124,0.672581,0.94583,1.028851,0.218182
151,66021,1832,62441,5557,0.918277,0.973,0.513934,0.973,0.486066,0.672603,0.94561,1.028966,0.21875
152,65996,1857,62381,5617,0.917395,0.972632,0.51408,0.972632,0.48592,0.672639,0.944984,1.029258,0.219298
153,65980,1873,62340,5658,0.916792,0.972396,0.514183,0.972396,0.485817,0.672672,0.944564,1.029465,0.219512
154,65963,1890,62309,5689,0.916336,0.972146,0.514243,0.972146,0.485757,0.672663,0.944211,1.029585,0.22
155,65952,1901,62292,5706,0.916086,0.971984,0.51427,0.971984,0.48573,0.672647,0.944005,1.029638,0.220339
156,65933,1920,62249,5749,0.915453,0.971704,0.51437,0.971704,0.48563,0.672666,0.943548,1.02984,0.220779
157,65926,1927,62219,5779,0.915012,0.9716,0.514464,0.9716,0.485536,0.672721,0.943276,1.030028,0.22093
158,65905,1948,62186,5812,0.914527,0.971291,0.514517,0.971291,0.485483,0.672692,0.942879,1.030134,0.222222
159,65876,1977,62109,5889,0.913395,0.970863,0.514717,0.970863,0.485283,0.67276,0.942098,1.030533,0.223881
160,65868,1985,62085,5913,0.913042,0.970746,0.514783,0.970746,0.485217,0.672788,0.941863,1.030666,0.224138
161,65862,1991,62055,5943,0.9126,0.970657,0.514881,0.970657,0.485119,0.672851,0.941598,1.030862,0.22449
162,65858,1995,62033,5965,0.912277,0.970598,0.514954,0.970598,0.485046,0.672899,0.941406,1.031009,0.224719
163,65853,2000,62027,5971,0.912189,0.970525,0.514959,0.970525,0.485041,0.672886,0.941325,1.031019,0.225
164,65792,2061,61863,6135,0.909777,0.969626,0.515389,0.969626,0.484611,0.673036,0.939669,1.03188,0.225806
165,65783,2070,61835,6163,0.909365,0.969493,0.515468,0.969493,0.484532,0.673072,0.939397,1.032038,0.226087
166,65760,2093,61748,6250,0.908086,0.969154,0.515732,0.969154,0.484268,0.673215,0.938587,1.032567,0.226415
167,65757,2096,61731,6267,0.907836,0.96911,0.51579,0.96911,0.48421,0.673253,0.93844,1.032682,0.226804
168,65744,2109,61691,6307,0.907247,0.968918,0.515902,0.968918,0.484098,0.673303,0.93805,1.032907,0.227273
169,65729,2124,61654,6344,0.906703,0.968697,0.515995,0.968697,0.484005,0.673329,0.937667,1.033093,0.227723
170,65712,2141,61597,6401,0.905865,0.968446,0.516161,0.968446,0.483839,0.67341,0.937122,1.033426,0.228426
171,65676,2177,61544,6454,0.905085,0.967916,0.51624,0.967916,0.48376,0.673348,0.936467,1.033582,0.228571
172,65658,2195,61487,6511,0.904247,0.967651,0.516403,0.967651,0.483597,0.673422,0.935915,1.033909,0.22963
173,65644,2209,61451,6547,0.903718,0.967444,0.516496,0.967444,0.483504,0.673451,0.935547,1.034095,0.230769
174,65604,2249,61371,6627,0.902541,0.966855,0.516669,0.966855,0.483331,0.673456,0.934664,1.034441,0.232082
175,65582,2271,61329,6669,0.901924,0.966531,0.516756,0.966531,0.483244,0.673451,0.934193,1.034616,0.232143
176,65575,2278,61307,6691,0.9016,0.966427,0.516819,0.966427,0.483181,0.673479,0.933979,1.034742,0.232558
177,65545,2308,61256,6742,0.90085,0.965985,0.516912,0.965985,0.483088,0.673451,0.933383,1.034929,0.233333
178,65526,2327,61231,6767,0.900482,0.965705,0.516942,0.965705,0.483058,0.673408,0.933059,1.034988,0.233766
179,65514,2339,61210,6788,0.900174,0.965528,0.516982,0.965528,0.483018,0.673399,0.932816,1.035068,0.234043
180,65490,2363,61184,6814,0.899791,0.965175,0.516996,0.965175,0.483004,0.673326,0.932448,1.035098,0.234177
181,65467,2386,61120,6878,0.89885,0.964836,0.51717,0.964836,0.48283,0.67339,0.931808,1.035445,0.234375
182,65447,2406,61073,6925,0.898159,0.964541,0.517286,0.964541,0.482714,0.673417,0.931314,1.035677,0.234568
183,65431,2422,61045,6953,0.897747,0.964305,0.517339,0.964305,0.482661,0.673404,0.930991,1.035784,0.235294
184,65407,2446,61017,6981,0.897335,0.963951,0.517362,0.963951,0.482638,0.673338,0.930608,1.03583,0.236364
185,65393,2460,60976,7022,0.896732,0.963745,0.517477,0.963745,0.482523,0.673384,0.930203,1.036059,0.236842
186,65375,2478,60948,7050,0.89632,0.96348,0.517523,0.96348,0.482477,0.673358,0.929864,1.036151,0.238095
187,65362,2491,60908,7090,0.895732,0.963288,0.517637,0.963288,0.482363,0.673408,0.929474,1.03638,0.24
188,65348,2505,60862,7136,0.895056,0.963082,0.517772,0.963082,0.482228,0.673472,0.929033,1.03665,0.240506
189,65322,2531,60827,7171,0.894541,0.962699,0.517816,0.962699,0.482184,0.673416,0.928584,1.036739,0.240964
190,65312,2541,60800,7198,0.894144,0.962551,0.517889,0.962551,0.482111,0.673441,0.928311,1.036884,0.241935
191,65297,2556,60749,7249,0.893394,0.96233,0.518041,0.96233,0.481959,0.673516,0.927825,1.037189,0.242188
192,65273,2580,60706,7292,0.892762,0.961977,0.518126,0.961977,0.481874,0.673501,0.927332,1.037359,0.242424
193,65250,2603,60649,7349,0.891923,0.961638,0.518273,0.961638,0.481727,0.673541,0.926743,1.037653,0.242991
194,65231,2622,60610,7388,0.89135,0.961358,0.51836,0.961358,0.48164,0.673547,0.926316,1.037829,0.243243
195,65142,2711,60443,7555,0.888894,0.960046,0.518708,0.960046,0.481292,0.673518,0.924432,1.038525,0.243626
196,65116,2737,60417,7581,0.888511,0.959663,0.518716,0.959663,0.481284,0.67343,0.924049,1.038541,0.243697
197,65095,2758,60377,7621,0.887923,0.959353,0.518801,0.959353,0.481199,0.673426,0.9236,1.038711,0.243902
198,65080,2773,60344,7654,0.887438,0.959132,0.51888,0.959132,0.48112,0.673438,0.923247,1.038869,0.244444
199,65054,2799,60275,7723,0.886423,0.958749,0.519066,0.958749,0.480934,0.6735,0.922547,1.039241,0.244898
200,65043,2810,60229,7769,0.885747,0.958587,0.519214,0.958587,0.480786,0.673584,0.922128,1.039538,0.245614
201,65037,2816,60212,7786,0.885497,0.958499,0.519262,0.958499,0.480738,0.673603,0.921959,1.039633,0.246154
202,65028,2825,60196,7802,0.885261,0.958366,0.519293,0.958366,0.480707,0.673597,0.921775,1.039697,0.246914
203,65008,2845,60152,7846,0.884614,0.958071,0.519399,0.958071,0.480601,0.673613,0.921303,1.039908,0.247012
204,64994,2859,60130,7868,0.884291,0.957865,0.519437,0.957865,0.480563,0.673593,0.921038,1.039983,0.247312
205,64972,2881,60098,7900,0.88382,0.957541,0.519485,0.957541,0.480515,0.673554,0.920641,1.04008,0.248748
206,64938,2915,60038,7960,0.882938,0.957039,0.519604,0.957039,0.480396,0.673529,0.919949,1.040318,0.25
207,64690,3163,59565,8433,0.875982,0.953385,0.520623,0.953385,0.479377,0.673475,0.914642,1.042358,0.252252
208,64673,3180,59518,8480,0.87529,0.953134,0.520754,0.953134,0.479246,0.673523,0.914171,1.042621,0.252525
209,64653,3200,59482,8516,0.874761,0.952839,0.520828,0.952839,0.479172,0.673511,0.913758,1.042769,0.254237
210,64643,3210,59461,8537,0.874452,0.952692,0.520878,0.952692,0.479122,0.673515,0.91353,1.042868,0.254545
211,64615,3238,59415,8583,0.873776,0.952279,0.520963,0.952279,0.479037,0.673483,0.912986,1.043039,0.254902
212,64601,3252,59371,8627,0.873129,0.952073,0.521093,0.952073,0.478907,0.673541,0.912559,1.043301,0.255319
213,64580,3273,59341,8657,0.872687,0.951763,0.521138,0.951763,0.478862,0.673501,0.912183,1.043391,0.255556
214,64558,3295,59303,8695,0.872129,0.951439,0.521213,0.951439,0.478787,0.673482,0.911742,1.04354,0.255814
215,64513,3340,59244,8754,0.871261,0.950776,0.521288,0.950776,0.478712,0.673378,0.910976,1.043689,0.256198
216,64494,3359,59219,8779,0.870893,0.950496,0.52132,0.950496,0.47868,0.673335,0.910652,1.043753,0.25641
217,64459,3394,59176,8822,0.870261,0.94998,0.521365,0.94998,0.478635,0.673243,0.910078,1.043845,0.256757
218,64415,3438,59067,8931,0.868658,0.949332,0.521655,0.949332,0.478345,0.673322,0.908952,1.044425,0.256966
219,64389,3464,59035,8963,0.868187,0.948948,0.521689,0.948948,0.478311,0.673254,0.908525,1.044494,0.258065
220,64370,3483,59016,8982,0.867908,0.948668,0.521696,0.948668,0.478304,0.673189,0.908245,1.044507,0.258427
221,64368,3485,59008,8990,0.86779,0.948639,0.521722,0.948639,0.478278,0.673203,0.908171,1.044559,0.259259
222,64340,3513,58962,9036,0.867114,0.948226,0.521808,0.948226,0.478192,0.673171,0.907627,1.044732,0.259542
223,64315,3538,58914,9084,0.866408,0.947858,0.521914,0.947858,0.478086,0.673166,0.907089,1.044944,0.259774
224,64240,3613,58790,9208,0.864584,0.946753,0.522149,0.946753,0.477851,0.673082,0.905625,1.045414,0.26
225,64199,3654,58701,9297,0.863275,0.946148,0.522368,0.946148,0.477632,0.673111,0.904668,1.045852,0.260274
226,64188,3665,58675,9323,0.862893,0.945986,0.522436,0.945986,0.477564,0.673127,0.904395,1.045988,0.26087
227,64145,3708,58576,9422,0.861437,0.945352,0.52269,0.945352,0.47731,0.673177,0.90335,1.046496,0.261682
228,64133,3720,58545,9453,0.860981,0.945176,0.522775,0.945176,0.477225,0.673203,0.903033,1.046667,0.261905
229,64118,3735,58470,9528,0.859878,0.944955,0.523037,0.944955,0.476963,0.673363,0.902371,1.047191,0.263158
230,64038,3815,58323,9675,0.857716,0.943776,0.523353,0.943776,0.476647,0.673326,0.9007,1.047824,0.263889
231,64027,3826,58296,9702,0.857319,0.943613,0.523426,0.943613,0.476574,0.673345,0.90042,1.04797,0.264151
232,64016,3837,58282,9716,0.857113,0.943451,0.523443,0.943451,0.476557,0.673318,0.900236,1.048004,0.264706
233,63976,3877,58204,9794,0.855966,0.942862,0.523621,0.942862,0.476379,0.673315,0.899368,1.048361,0.265306
234,63962,3891,58167,9831,0.855422,0.942655,0.523725,0.942655,0.476275,0.673348,0.898992,1.048569,0.266187
235,63954,3899,58129,9869,0.854863,0.942538,0.523857,0.942538,0.476143,0.673427,0.898654,1.048833,0.266667
236,63886,3967,58041,9957,0.853569,0.941535,0.523969,0.941535,0.476031,0.673264,0.897505,1.049058,0.267857
237,63881,3972,58022,9976,0.85329,0.941462,0.524031,0.941462,0.475969,0.673296,0.897329,1.049183,0.268116
238,63863,3990,57958,10040,0.852349,0.941196,0.524236,0.941196,0.475764,0.673398,0.896725,1.049593,0.268293
239,63791,4062,57868,10130,0.851025,0.940135,0.524343,0.940135,0.475657,0.673213,0.895533,1.049806,0.27027
240,63755,4098,57801,10197,0.85004,0.939605,0.524491,0.939605,0.475509,0.673199,0.894774,1.050102,0.270588
241,63741,4112,57766,10232,0.849525,0.939398,0.524587,0.939398,0.475413,0.673226,0.894414,1.050295,0.270833
242,63734,4119,57741,10257,0.849157,0.939295,0.524668,0.939295,0.475332,0.673265,0.894178,1.050456,0.271186
243,63725,4128,57724,10274,0.848907,0.939163,0.524706,0.939163,0.475294,0.673263,0.893987,1.050533,0.272189
244,63681,4172,57672,10326,0.848143,0.938514,0.524758,0.938514,0.475242,0.673139,0.89328,1.050638,0.272277
245,63646,4207,57584,10414,0.846848,0.937998,0.525002,0.937998,0.474998,0.673207,0.892375,1.051126,0.272562
246,63575,4278,57468,10530,0.845143,0.936952,0.525227,0.936952,0.474773,0.673122,0.890998,1.051576,0.272727
247,63471,4382,57325,10673,0.84304,0.935419,0.52544,0.935419,0.47456,0.6729,0.88918,1.052002,0.273684
248,63462,4391,57299,10699,0.842657,0.935287,0.525517,0.935287,0.474483,0.67293,0.888922,1.052158,0.273973
249,63452,4401,57267,10731,0.842187,0.935139,0.525617,0.935139,0.474383,0.672974,0.888613,1.052358,0.27451
250,63434,4419,57218,10780,0.841466,0.934874,0.52576,0.934874,0.47424,0.673022,0.88812,1.052644,0.275
251,63430,4423,57207,10791,0.841304,0.934815,0.525792,0.934815,0.474208,0.673033,0.88801,1.052708,0.275316
252,63380,4473,57106,10892,0.839819,0.934078,0.526036,0.934078,0.473964,0.673042,0.886898,1.053197,0.275862
253,63378,4475,57097,10901,0.839686,0.934049,0.526068,0.934049,0.473932,0.67306,0.886817,1.053259,0.276074
254,63348,4505,57035,10963,0.838775,0.933606,0.52622,0.933606,0.47378,0.67307,0.88614,1.053565,0.276316
255,63334,4519,57020,10978,0.838554,0.9334,0.526231,0.9334,0.473769,0.673025,0.885926,1.053586,0.276471
256,63325,4528,57001,10997,0.838275,0.933268,0.526279,0.933268,0.473721,0.673029,0.88572,1.053682,0.276596
257,63298,4555,56952,11046,0.837554,0.93287,0.526387,0.93287,0.473613,0.673014,0.885161,1.053898,0.276786
258,63289,4564,56921,11077,0.837098,0.932737,0.526487,0.932737,0.473513,0.673062,0.884867,1.054099,0.277372
259,63272,4581,56904,11094,0.836848,0.932486,0.526494,0.932486,0.473506,0.673003,0.884616,1.054114,0.277778
260,63247,4606,56851,11147,0.836069,0.932118,0.526628,0.932118,0.473372,0.673016,0.884042,1.054382,0.278592
261,63201,4652,56770,11228,0.834877,0.93144,0.526802,0.93144,0.473198,0.672981,0.883107,1.05473,0.278689
262,63188,4665,56754,11244,0.834642,0.931248,0.526821,0.931248,0.473179,0.672947,0.882894,1.054768,0.279635
263,63174,4679,56718,11280,0.834113,0.931042,0.526924,0.931042,0.473076,0.672977,0.882526,1.054974,0.28
264,63159,4694,56686,11312,0.833642,0.930821,0.527006,0.930821,0.472994,0.672985,0.88218,1.055138,0.280488
265,63142,4711,56660,11338,0.83326,0.93057,0.527053,0.93057,0.472947,0.672958,0.881863,1.055232,0.280702
266,63134,4719,56627,11371,0.832774,0.930453,0.527167,0.930453,0.472833,0.67302,0.881561,1.05546,0.28125
267,63099,4754,56567,11431,0.831892,0.929937,0.527293,0.929937,0.472707,0.672988,0.880862,1.055712,0.281481
268,63072,4781,56524,11474,0.83126,0.929539,0.527375,0.929539,0.472625,0.672951,0.880347,1.055878,0.281967
269,63036,4817,56482,11516,0.830642,0.929008,0.527418,0.929008,0.472582,0.672847,0.879773,1.055964,0.282051
270,62991,4862,56410,11588,0.829583,0.928345,0.527558,0.928345,0.472442,0.672787,0.878911,1.056244,0.282353
271,62975,4878,56386,11612,0.82923,0.928109,0.527601,0.928109,0.472399,0.67276,0.878617,1.05633,0.282609
272,62968,4885,56364,11634,0.828907,0.928006,0.527671,0.928006,0.472329,0.672789,0.878404,1.056469,0.282895
273,62946,4907,56313,11685,0.828157,0.927682,0.527809,0.927682,0.472191,0.672816,0.877866,1.056746,0.283262
274,62917,4936,56250,11748,0.82723,0.927255,0.527973,0.927255,0.472027,0.672837,0.877189,1.057075,0.283333
275,62904,4949,56228,11770,0.826907,0.927063,0.528019,0.927063,0.471981,0.672824,0.876931,1.057167,0.283688
276,62884,4969,56194,11804,0.826407,0.926768,0.528091,0.926768,0.471909,0.672804,0.876534,1.05731,0.284041
277,62844,5009,56117,11881,0.825274,0.926179,0.528274,0.926179,0.471726,0.672798,0.875673,1.057677,0.284091
278,62830,5023,56090,11908,0.824877,0.925972,0.528338,0.925972,0.471662,0.672795,0.875371,1.057806,0.284211
279,62812,5041,56068,11930,0.824554,0.925707,0.528365,0.925707,0.471635,0.672747,0.875076,1.057859,0.284264
280,62791,5062,56055,11943,0.824362,0.925398,0.528339,0.925398,0.471661,0.672644,0.874826,1.057807,0.285714
281,62699,5154,55899,12099,0.822068,0.924042,0.528668,0.924042,0.471332,0.672552,0.873001,1.058466,0.287234
282,62671,5182,55856,12142,0.821436,0.923629,0.528749,0.923629,0.471251,0.672508,0.872478,1.058627,0.28777
283,62651,5202,55800,12198,0.820612,0.923334,0.528919,0.923334,0.471081,0.672567,0.871918,1.058969,0.287879
284,62619,5234,55759,12239,0.820009,0.922863,0.528975,0.922863,0.471025,0.672487,0.871381,1.05908,0.288136
285,62593,5260,55718,12280,0.819406,0.922479,0.529055,0.922479,0.470945,0.67245,0.870888,1.05924,0.288344
286,62565,5288,55654,12344,0.818465,0.922067,0.52923,0.922067,0.47077,0.672482,0.870211,1.05959,0.288462
287,62545,5308,55613,12385,0.817862,0.921772,0.529334,0.921772,0.470666,0.672487,0.869762,1.059798,0.288889
288,62534,5319,55589,12409,0.817509,0.92161,0.529397,0.92161,0.470603,0.672495,0.869504,1.059926,0.289157
289,62523,5330,55573,12425,0.817274,0.921448,0.529425,0.921448,0.470575,0.672475,0.869305,1.059982,0.289474
290,62500,5353,55529,12469,0.816627,0.921109,0.529531,0.921109,0.470469,0.67247,0.868812,1.060193,0.290323
291,62483,5370,55492,12506,0.816083,0.920858,0.529629,0.920858,0.470371,0.672482,0.868415,1.06039,0.290598
292,62467,5386,55450,12548,0.815465,0.920623,0.529754,0.920623,0.470246,0.67252,0.867988,1.06064,0.290909
293,62449,5404,55430,12568,0.815171,0.920357,0.529772,0.920357,0.470228,0.672464,0.867708,1.060676,0.291667
294,62434,5419,55411,12587,0.814892,0.920136,0.529798,0.920136,0.470202,0.672425,0.867458,1.060727,0.292135
295,62416,5437,55382,12616,0.814465,0.919871,0.529856,0.919871,0.470144,0.672401,0.867112,1.060845,0.292308
296,62395,5458,55341,12657,0.813862,0.919561,0.529957,0.919561,0.470043,0.6724,0.866655,1.061046,0.292683
297,62373,5480,55273,12725,0.812862,0.919237,0.530175,0.919237,0.469825,0.672489,0.865993,1.061484,0.293478
298,62355,5498,55233,12765,0.812274,0.918972,0.530284,0.918972,0.469716,0.672505,0.865566,1.061701,0.294118
299,62214,5639,54947,13051,0.808068,0.916894,0.531013,0.916894,0.468987,0.672533,0.862423,1.063161,0.294587
300,62097,5756,54695,13303,0.804362,0.91517,0.531689,0.91517,0.468311,0.67261,0.859707,1.064514,0.294872
301,62080,5773,54675,13323,0.804068,0.914919,0.531712,0.914919,0.468288,0.67256,0.859434,1.06456,0.295
302,62066,5787,54660,13338,0.803847,0.914713,0.531724,0.914713,0.468276,0.672514,0.859221,1.064584,0.295082
303,62054,5799,54643,13355,0.803597,0.914536,0.531753,0.914536,0.468247,0.67249,0.859007,1.064643,0.295597
304,62024,5829,54582,13416,0.8027,0.914094,0.531911,0.914094,0.468089,0.672496,0.858337,1.064958,0.295918
305,62013,5840,54536,13462,0.802024,0.913932,0.532077,0.913932,0.467923,0.672585,0.857918,1.06529,0.296296
306,61963,5890,54469,13529,0.801038,0.913195,0.532182,0.913195,0.467818,0.672469,0.857057,1.065501,0.296774
307,61943,5910,54406,13592,0.800112,0.9129,0.53239,0.9129,0.46761,0.672555,0.856446,1.065917,0.297297
308,61889,5964,54321,13677,0.798862,0.912104,0.532562,0.912104,0.467438,0.672476,0.855422,1.066262,0.297619
309,61879,5974,54292,13706,0.798435,0.911957,0.532654,0.911957,0.467346,0.67251,0.855135,1.066447,0.297872
310,61869,5984,54275,13723,0.798185,0.911809,0.532692,0.911809,0.467308,0.6725,0.854937,1.066523,0.298246
311,61843,6010,54240,13758,0.797671,0.911426,0.532748,0.911426,0.467252,0.67244,0.854488,1.066635,0.298507
312,61823,6030,54209,13789,0.797215,0.911131,0.53281,0.911131,0.46719,0.672409,0.854112,1.066758,0.298701
313,61816,6037,54183,13815,0.796832,0.911028,0.532901,0.911028,0.467099,0.672454,0.853869,1.066941,0.298969
314,61810,6043,54161,13837,0.796509,0.91094,0.532978,0.91094,0.467022,0.672491,0.853663,1.067095,0.299492
315,61793,6060,54126,13872,0.795994,0.910689,0.533071,0.910689,0.466929,0.672496,0.85328,1.06728,0.299611
316,61769,6084,54101,13897,0.795626,0.910336,0.533089,0.910336,0.466911,0.672414,0.85292,1.067317,0.299652
317,61759,6094,54070,13928,0.79517,0.910188,0.533191,0.910188,0.466809,0.672456,0.852618,1.067522,0.3
318,61694,6159,53943,14055,0.793303,0.90923,0.533514,0.90923,0.466486,0.672451,0.851205,1.068169,0.300885
319,61678,6175,53907,14091,0.792773,0.908994,0.533616,0.908994,0.466384,0.672467,0.850822,1.068372,0.300971
320,61659,6194,53880,14118,0.792376,0.908714,0.533664,0.908714,0.466336,0.672428,0.850483,1.068468,0.301136
321,61647,6206,53866,14132,0.79217,0.908538,0.53368,0.908538,0.46632,0.672393,0.850292,1.068501,0.301887
322,61600,6253,53798,14200,0.79117,0.907845,0.533805,0.907845,0.466195,0.672302,0.849445,1.06875,0.302083
323,61567,6286,53759,14239,0.790597,0.907359,0.533852,0.907359,0.466148,0.672206,0.848915,1.068845,0.302326
324,61508,6345,53648,14350,0.788964,0.906489,0.534128,0.906489,0.465872,0.672186,0.847664,1.069397,0.30303
325,61468,6385,53574,14424,0.787876,0.9059,0.534309,0.9059,0.465691,0.672167,0.846825,1.06976,0.303571
326,61460,6393,53558,14440,0.787641,0.905782,0.534351,0.905782,0.465649,0.672168,0.846648,1.069844,0.304348
327,61432,6421,53515,14483,0.787008,0.905369,0.534438,0.905369,0.465562,0.672123,0.846126,1.070017,0.304878
328,61417,6436,53482,14516,0.786523,0.905148,0.53453,0.905148,0.46547,0.672135,0.845772,1.070203,0.305085
329,61390,6463,53456,14542,0.786141,0.90475,0.534542,0.90475,0.465458,0.672034,0.845382,1.070226,0.305141
330,61304,6549,53247,14751,0.783067,0.903483,0.535168,0.903483,0.464832,0.672178,0.843211,1.071479,0.305556
331,61274,6579,53178,14820,0.782052,0.90304,0.535369,0.90304,0.464631,0.672214,0.842482,1.071881,0.305785
332,61226,6627,53123,14875,0.781244,0.902333,0.535431,0.902333,0.464569,0.672067,0.841724,1.072006,0.305882
333,61211,6642,53099,14899,0.780891,0.902112,0.535482,0.902112,0.464518,0.672046,0.841437,1.072109,0.306452
334,61174,6679,53055,14943,0.780244,0.901567,0.535538,0.901567,0.464462,0.671939,0.84084,1.072221,0.306818
335,61150,6703,53021,14977,0.779744,0.901213,0.5356,0.901213,0.4644,0.671889,0.840413,1.072345,0.307692
336,61081,6772,52925,15073,0.778332,0.900196,0.53577,0.900196,0.46423,0.67174,0.839199,1.072685,0.308943
337,61054,6799,52890,15108,0.777817,0.899798,0.535825,0.899798,0.464175,0.671672,0.838742,1.072794,0.309091
338,61049,6804,52871,15127,0.777538,0.899724,0.535894,0.899724,0.464106,0.671706,0.838566,1.072932,0.309524
339,61042,6811,52865,15133,0.777449,0.899621,0.535893,0.899621,0.464107,0.671677,0.83847,1.072932,0.310127
340,61022,6831,52822,15176,0.776817,0.899326,0.536014,0.899326,0.463986,0.67169,0.838006,1.073174,0.311111
341,61000,6853,52804,15194,0.776552,0.899002,0.536009,0.899002,0.463991,0.671595,0.837712,1.073164,0.311688
342,60984,6869,52772,15226,0.776082,0.898766,0.536095,0.898766,0.463905,0.671597,0.837359,1.073335,0.3125
343,60910,6943,52672,15326,0.774611,0.897676,0.536265,0.897676,0.463735,0.671425,0.836078,1.073675,0.313433
344,60896,6957,52648,15350,0.774258,0.89747,0.536321,0.89747,0.463679,0.671411,0.835798,1.073788,0.313725
345,60882,6971,52633,15365,0.774037,0.897263,0.536334,0.897263,0.463666,0.671364,0.835585,1.073815,0.314286
346,60870,6983,52618,15380,0.773817,0.897086,0.536356,0.897086,0.463644,0.671332,0.835386,1.073859,0.314815
347,60845,7008,52586,15412,0.773346,0.896718,0.536405,0.896718,0.463595,0.671267,0.834966,1.073957,0.315068
348,60830,7023,52557,15441,0.77292,0.896497,0.536481,0.896497,0.463519,0.671265,0.834642,1.074109,0.315436
349,60813,7040,52550,15448,0.772817,0.896246,0.536445,0.896246,0.463555,0.671166,0.834466,1.074036,0.315789
350,60727,7126,52432,15566,0.771082,0.894979,0.536652,0.894979,0.463348,0.670972,0.832964,1.074451,0.316832
351,60716,7137,52416,15582,0.770846,0.894817,0.536683,0.894817,0.463317,0.670951,0.832765,1.074513,0.317073
352,60686,7167,52365,15633,0.770096,0.894375,0.536802,0.894375,0.463198,0.670919,0.832169,1.074751,0.31746
353,60670,7183,52333,15665,0.769626,0.894139,0.536888,0.894139,0.463112,0.670921,0.831816,1.074924,0.317757
354,60657,7196,52307,15691,0.769243,0.893947,0.536959,0.893947,0.463041,0.670921,0.831529,1.075065,0.318182
355,60638,7215,52269,15729,0.768684,0.893667,0.537061,0.893667,0.462939,0.670923,0.831109,1.075271,0.318584
356,60593,7260,52214,15784,0.767876,0.893004,0.537139,0.893004,0.462861,0.670796,0.830373,1.075425,0.318841
357,60580,7273,52191,15807,0.767537,0.892812,0.537195,0.892812,0.462805,0.670786,0.830108,1.075538,0.319149
358,60550,7303,52147,15851,0.76689,0.89237,0.537281,0.89237,0.462719,0.670728,0.829563,1.075711,0.319588
359,60533,7320,52120,15878,0.766493,0.89212,0.53734,0.89212,0.46266,0.670703,0.829239,1.075829,0.32
360,60502,7351,52089,15909,0.766037,0.891663,0.537361,0.891663,0.462639,0.67059,0.828783,1.07587,0.320755
361,60462,7391,52033,15965,0.765214,0.891073,0.537464,0.891073,0.462536,0.670504,0.828076,1.076076,0.320988
362,60443,7410,52013,15985,0.76492,0.890793,0.537481,0.890793,0.462519,0.670438,0.827789,1.076111,0.321429
363,60425,7428,51975,16023,0.764361,0.890528,0.537589,0.890528,0.462411,0.670447,0.827377,1.076327,0.321678
364,60385,7468,51936,16062,0.763787,0.889939,0.537611,0.889939,0.462389,0.670296,0.826796,1.076371,0.322148
365,60358,7495,51897,16101,0.763214,0.889541,0.537687,0.889541,0.462313,0.670242,0.82631,1.076522,0.322353
366,60337,7516,51848,16150,0.762493,0.889231,0.537835,0.889231,0.462165,0.67027,0.825794,1.076819,0.322581
367,60273,7580,51747,16251,0.761008,0.888288,0.538056,0.888288,0.461944,0.670173,0.82458,1.077261,0.323232
368,60256,7597,51717,16281,0.760566,0.888037,0.53813,0.888037,0.46187,0.670159,0.824234,1.077409,0.323529
369,60232,7621,51670,16328,0.759875,0.887684,0.538257,0.887684,0.461743,0.670157,0.823711,1.077664,0.323944
370,60216,7637,51650,16348,0.759581,0.887448,0.538287,0.887448,0.461713,0.670113,0.823446,1.077724,0.324074
371,60191,7662,51618,16380,0.759111,0.887079,0.538338,0.887079,0.461662,0.670047,0.823027,1.077826,0.324324
372,60155,7698,51547,16451,0.758066,0.886549,0.538531,0.886549,0.461469,0.670045,0.822239,1.078213,0.324675
373,60142,7711,51531,16467,0.757831,0.886357,0.538555,0.886357,0.461445,0.670009,0.822026,1.07826,0.325
374,60086,7767,51467,16531,0.75689,0.885532,0.538632,0.885532,0.461368,0.669833,0.821142,1.078415,0.325581
375,60065,7788,51431,16567,0.75636,0.885222,0.538719,0.885222,0.461281,0.669811,0.820723,1.078589,0.325843
376,60049,7804,51406,16592,0.755993,0.884987,0.538773,0.884987,0.461227,0.669786,0.820421,1.078698,0.326087
377,60035,7818,51392,16606,0.755787,0.88478,0.538783,0.88478,0.461217,0.669734,0.820215,1.078718,0.326531
378,60018,7835,51385,16613,0.755684,0.88453,0.538747,0.88453,0.461253,0.669634,0.820038,1.078645,0.326733
379,59984,7869,51321,16677,0.754743,0.884029,0.538916,0.884029,0.461084,0.669621,0.819317,1.078983,0.326923
380,59973,7880,51296,16702,0.754375,0.883867,0.538991,0.883867,0.461009,0.669633,0.819052,1.079134,0.327273
381,59959,7894,51270,16728,0.753993,0.88366,0.539059,0.88366,0.460941,0.669626,0.818757,1.07927,0.327586
382,59925,7928,51231,16767,0.753419,0.883159,0.539107,0.883159,0.460893,0.669519,0.81822,1.079366,0.327869
383,59901,7952,51220,16778,0.753257,0.882805,0.539061,0.882805,0.460939,0.669382,0.817962,1.079274,0.328221
384,59872,7981,51178,16820,0.75264,0.882378,0.539145,0.882378,0.460855,0.669324,0.81744,1.079441,0.329114
385,59849,8004,51148,16850,0.752199,0.882039,0.539195,0.882039,0.460805,0.669265,0.81705,1.079542,0.329268
386,59836,8017,51122,16876,0.751816,0.881848,0.539267,0.881848,0.460733,0.669265,0.816762,1.079687,0.330189
387,59794,8059,51049,16949,0.750743,0.881229,0.539448,0.881229,0.460552,0.669226,0.815916,1.080048,0.330435
388,59772,8081,51025,16973,0.75039,0.880904,0.539473,0.880904,0.460527,0.669152,0.815577,1.080099,0.330579
389,59752,8101,50981,17017,0.749743,0.88061,0.539604,0.88061,0.460396,0.669168,0.815106,1.080362,0.331081
390,59723,8130,50937,17061,0.749096,0.880182,0.539698,0.880182,0.460302,0.669117,0.814569,1.08055,0.331492
391,59694,8159,50878,17120,0.748228,0.879755,0.539865,0.879755,0.460135,0.669121,0.813921,1.080885,0.333333
392,59212,8641,50182,17816,0.737992,0.872651,0.541273,0.872651,0.458727,0.66813,0.80525,1.083702,0.335135
393,59203,8650,50158,17840,0.737639,0.872519,0.541354,0.872519,0.458646,0.668153,0.805007,1.083865,0.335443
394,59158,8695,50126,17872,0.737169,0.871855,0.541324,0.871855,0.458676,0.667935,0.80444,1.083804,0.33557
395,59150,8703,50114,17884,0.736992,0.871737,0.541349,0.871737,0.458651,0.66792,0.804293,1.083856,0.335664
396,59128,8725,50084,17914,0.736551,0.871413,0.541406,0.871413,0.458594,0.667868,0.80391,1.083968,0.336066
397,59110,8743,50053,17945,0.736095,0.871148,0.541484,0.871148,0.458516,0.667849,0.803549,1.084125,0.336449
398,59086,8767,50021,17977,0.735625,0.870794,0.541542,0.870794,0.458458,0.667789,0.803137,1.084241,0.336538
399,59078,8775,50014,17984,0.735522,0.870676,0.541543,0.870676,0.458457,0.667756,0.803027,1.084243,0.33657
400,59078,8775,50013,17985,0.735507,0.870676,0.541548,0.870676,0.458452,0.667759,0.803019,1.084253,0.337209
401,59036,8817,49957,18041,0.734683,0.870057,0.541649,0.870057,0.458351,0.667654,0.802298,1.084456,0.337662
402,59024,8829,49938,18060,0.734404,0.86988,0.541693,0.86988,0.458307,0.667636,0.80207,1.084544,0.338028
403,59016,8837,49920,18078,0.734139,0.869763,0.541749,0.869763,0.458251,0.667643,0.801879,1.084656,0.33871
404,59006,8847,49895,18103,0.733772,0.869615,0.541832,0.869615,0.458168,0.667662,0.801621,1.084821,0.338843
405,58952,8901,49825,18173,0.732742,0.868819,0.541953,0.868819,0.458047,0.66752,0.800708,1.085064,0.338983
406,58932,8921,49789,18209,0.732213,0.868525,0.542048,0.868525,0.457952,0.667505,0.800296,1.085254,0.339286
407,58911,8942,49768,18230,0.731904,0.868215,0.542064,0.868215,0.457936,0.667426,0.799987,1.085287,0.339623
408,58878,8975,49717,18281,0.731154,0.867729,0.54218,0.867729,0.45782,0.667369,0.799368,1.085518,0.34
409,58865,8988,49705,18293,0.730977,0.867537,0.542185,0.867537,0.457815,0.667317,0.799184,1.085528,0.340426
410,58842,9011,49673,18325,0.730507,0.867198,0.542248,0.867198,0.457752,0.667264,0.79878,1.085654,0.340909
411,58795,9058,49597,18401,0.729389,0.866506,0.542429,0.866506,0.457571,0.667196,0.797874,1.086018,0.341463
412,58781,9072,49569,18429,0.728977,0.866299,0.54251,0.866299,0.45749,0.667196,0.797565,1.08618,0.341865
413,58690,9163,49392,18606,0.726374,0.864958,0.543014,0.864958,0.456986,0.667178,0.795592,1.087188,0.341935
414,58678,9175,49376,18622,0.726139,0.864781,0.543043,0.864781,0.456957,0.667148,0.795386,1.087247,0.342105
415,58662,9191,49355,18643,0.72583,0.864545,0.543081,0.864545,0.456919,0.667106,0.795114,1.087323,0.342857
416,58614,9239,49289,18709,0.72486,0.863838,0.54321,0.863838,0.45679,0.666993,0.794275,1.087581,0.343066
417,58606,9247,49280,18718,0.724727,0.86372,0.543222,0.86372,0.456778,0.666966,0.794149,1.087604,0.34375
418,58580,9273,49245,18753,0.724212,0.863337,0.543288,0.863337,0.456712,0.666902,0.7937,1.087736,0.344221
419,58555,9298,49207,18791,0.723654,0.862968,0.543373,0.862968,0.456627,0.666856,0.793237,1.087908,0.344262
420,58518,9335,49138,18860,0.722639,0.862423,0.543565,0.862423,0.456435,0.666838,0.792456,1.088291,0.344381
421,58402,9451,48961,19037,0.720036,0.860714,0.543968,0.860714,0.456032,0.666629,0.7903,1.089098,0.344828
422,58397,9456,48949,19049,0.719859,0.86064,0.544007,0.86064,0.455993,0.666636,0.790175,1.089177,0.345455
423,58391,9462,48935,19063,0.719654,0.860551,0.544053,0.860551,0.455947,0.666644,0.790027,1.089268,0.346154
424,58350,9503,48882,19116,0.718874,0.859947,0.544147,0.859947,0.455853,0.666533,0.789335,1.089457,0.346166
425,58143,9710,48526,19472,0.713639,0.856897,0.545079,0.856897,0.454921,0.666311,0.785191,1.091322,0.346535
426,58135,9718,48513,19485,0.713447,0.856779,0.545111,0.856779,0.454889,0.6663,0.785037,1.091387,0.346591
427,58104,9749,48457,19541,0.712624,0.856322,0.545265,0.856322,0.454735,0.666277,0.784396,1.091696,0.346939
428,58076,9777,48397,19601,0.711742,0.855909,0.545453,0.855909,0.454547,0.666292,0.783748,1.092071,0.347222
429,58056,9797,48377,19621,0.711447,0.855614,0.54547,0.855614,0.45453,0.666215,0.783454,1.092105,0.347826
430,58003,9850,48284,19714,0.71008,0.854833,0.545721,0.854833,0.454279,0.666165,0.782379,1.092607,0.348214
431,57982,9871,48247,19751,0.709536,0.854524,0.545821,0.854524,0.454179,0.666146,0.781952,1.092808,0.348315
432,57968,9885,48215,19783,0.709065,0.854317,0.545925,0.854317,0.454075,0.666161,0.781614,1.093017,0.348837
433,57958,9895,48198,19800,0.708815,0.85417,0.54597,0.85417,0.45403,0.666149,0.781415,1.093107,0.349206
434,57950,9903,48169,19829,0.708388,0.854052,0.546085,0.854052,0.453915,0.666199,0.781143,1.093337,0.349345
435,57886,9967,48095,19903,0.7073,0.853109,0.546192,0.853109,0.453808,0.665992,0.780127,1.093552,0.34981
436,57864,9989,48069,19929,0.706918,0.852785,0.546232,0.852785,0.453768,0.665922,0.779773,1.093631,0.35
437,57793,10060,47999,19999,0.705888,0.851738,0.546289,0.851738,0.453711,0.665645,0.778736,1.093745,0.350649
438,57759,10094,47943,20055,0.705065,0.851237,0.546432,0.851237,0.453568,0.665599,0.778073,1.094033,0.351351
439,57754,10099,47924,20074,0.704785,0.851164,0.546509,0.851164,0.453491,0.665633,0.777896,1.094186,0.351351
440,57702,10151,47865,20133,0.703918,0.850397,0.546591,0.850397,0.453409,0.66546,0.777079,1.094351,0.351648
441,57684,10169,47844,20154,0.703609,0.850132,0.546623,0.850132,0.453377,0.665402,0.776792,1.094414,0.351852
442,57664,10189,47822,20176,0.703285,0.849837,0.546651,0.849837,0.453349,0.665332,0.776483,1.09447,0.352273
443,57655,10198,47810,20188,0.703109,0.849705,0.546674,0.849705,0.453326,0.665309,0.776328,1.094517,0.352381
444,57639,10214,47790,20208,0.702815,0.849469,0.546709,0.849469,0.453291,0.665262,0.776063,1.094587,0.352941
445,57541,10312,47630,20368,0.700462,0.848024,0.547119,0.848024,0.452881,0.665122,0.774164,1.095406,0.353448
446,57513,10340,47604,20394,0.700079,0.847612,0.547133,0.847612,0.452867,0.665005,0.773767,1.095436,0.353488
447,57458,10395,47541,20457,0.699153,0.846801,0.547224,0.846801,0.452776,0.664823,0.772898,1.095618,0.353659
448,57436,10417,47514,20484,0.698756,0.846477,0.54727,0.846477,0.45273,0.664757,0.772538,1.09571,0.353846
449,57414,10439,47496,20502,0.698491,0.846153,0.547269,0.846153,0.452731,0.664656,0.772243,1.095708,0.353982
450,57384,10469,47461,20537,0.697976,0.845711,0.547322,0.845711,0.452678,0.664559,0.771765,1.095814,0.354167
451,57337,10516,47404,20594,0.697138,0.845018,0.547417,0.845018,0.452583,0.664415,0.770999,1.096004,0.35443
452,57325,10528,47388,20610,0.696903,0.844841,0.547449,0.844841,0.452551,0.664383,0.770793,1.096067,0.354839
453,57242,10611,47302,20696,0.695638,0.843618,0.54754,0.843618,0.45246,0.664072,0.769549,1.09625,0.35514
454,57220,10633,47251,20747,0.694888,0.843294,0.547712,0.843294,0.452288,0.664098,0.769012,1.096594,0.355297
455,56718,11135,46312,21686,0.681079,0.835895,0.5505,0.835895,0.4495,0.663823,0.758404,1.102176,0.355556
456,56683,11170,46258,21740,0.680285,0.835379,0.550636,0.835379,0.449364,0.663759,0.757749,1.102448,0.355932
457,56670,11183,46229,21769,0.679858,0.835188,0.550734,0.835188,0.449266,0.66377,0.75744,1.102645,0.35625
458,56632,11221,46185,21813,0.679211,0.834628,0.550804,0.834628,0.449196,0.663643,0.756837,1.102785,0.356589
459,56612,11241,46158,21840,0.678814,0.834333,0.550861,0.834333,0.449139,0.663592,0.756491,1.102899,0.357143
460,56566,11287,46105,21893,0.678035,0.833655,0.550944,0.833655,0.449056,0.663437,0.755762,1.103066,0.358209
461,56529,11324,46060,21938,0.677373,0.83311,0.551024,0.83311,0.448976,0.663322,0.755158,1.103226,0.358491
462,56495,11358,45996,22002,0.676432,0.832609,0.551219,0.832609,0.448781,0.663305,0.754437,1.103616,0.358974
463,56433,11420,45934,22064,0.67552,0.831695,0.551281,0.831695,0.448719,0.66306,0.753524,1.10374,0.359649
464,56412,11441,45899,22099,0.675005,0.831385,0.551378,0.831385,0.448622,0.663031,0.753112,1.103934,0.359788
465,56344,11509,45774,22224,0.673167,0.830383,0.551754,0.830383,0.448246,0.662984,0.751691,1.104687,0.36
466,56281,11572,45692,22306,0.671961,0.829455,0.551921,0.829455,0.448079,0.662808,0.750624,1.105021,0.36036
467,56238,11615,45661,22337,0.671505,0.828821,0.551899,0.828821,0.448101,0.66259,0.750079,1.104978,0.360465
468,56214,11639,45638,22360,0.671167,0.828467,0.551918,0.828467,0.448082,0.662491,0.749733,1.105016,0.360656
469,56173,11680,45615,22383,0.670829,0.827863,0.551863,0.827863,0.448137,0.662257,0.749262,1.104905,0.361111
470,56118,11735,45560,22438,0.67002,0.827053,0.551919,0.827053,0.448081,0.662038,0.748452,1.105017,0.36129
471,56107,11746,45551,22447,0.669887,0.82689,0.551919,0.82689,0.448081,0.661987,0.748305,1.105018,0.361446
472,56057,11796,45496,22502,0.669079,0.826154,0.551997,0.826154,0.448003,0.661807,0.747532,1.105175,0.362069
473,56027,11826,45457,22541,0.668505,0.825711,0.552077,0.825711,0.447923,0.661722,0.747024,1.105334,0.362694
474,55987,11866,45395,22603,0.667593,0.825122,0.552238,0.825122,0.447762,0.661648,0.746273,1.105656,0.362903
475,55963,11890,45365,22633,0.667152,0.824768,0.552296,0.824768,0.447704,0.661575,0.745876,1.105771,0.363128
476,55940,11913,45338,22660,0.666755,0.824429,0.552341,0.824429,0.447659,0.661499,0.745508,1.105862,0.363636
477,55848,12005,45165,22833,0.664211,0.823073,0.552879,0.823073,0.447121,0.661448,0.743557,1.10694,0.364486
478,55837,12016,45128,22870,0.663667,0.822911,0.553033,0.822911,0.446967,0.661505,0.743204,1.107248,0.364903
479,55811,12042,45084,22914,0.66302,0.822528,0.553159,0.822528,0.446841,0.661472,0.742689,1.107501,0.365079
480,55794,12059,45069,22929,0.662799,0.822278,0.553166,0.822278,0.446834,0.661395,0.742453,1.107514,0.365385
481,55783,12070,45052,22946,0.662549,0.822115,0.553211,0.822115,0.446789,0.661375,0.742247,1.107604,0.365854
482,55726,12127,44989,23009,0.661622,0.821275,0.553304,0.821275,0.446696,0.661169,0.741364,1.10779,0.366071
483,55702,12151,44955,23043,0.661122,0.820922,0.553384,0.820922,0.446616,0.661112,0.740937,1.107951,0.366197
484,55682,12171,44940,23058,0.660902,0.820627,0.553378,0.820627,0.446622,0.661012,0.740679,1.107939,0.366667
485,55593,12260,44805,23193,0.658916,0.819315,0.553726,0.819315,0.446274,0.660834,0.73903,1.108636,0.366972
486,55591,12262,44792,23206,0.658725,0.819286,0.553789,0.819286,0.446211,0.660869,0.73892,1.108761,0.367089
487,55565,12288,44777,23221,0.658505,0.818903,0.553756,0.818903,0.446244,0.660721,0.738618,1.108696,0.367347
488,55558,12295,44768,23230,0.658372,0.818799,0.553775,0.818799,0.446225,0.660701,0.7385,1.108733,0.367647
489,55506,12347,44705,23293,0.657446,0.818033,0.553891,0.818033,0.446109,0.660534,0.737654,1.108966,0.367816
490,55488,12365,44685,23313,0.657152,0.817768,0.553922,0.817768,0.446078,0.660469,0.737374,1.109027,0.368
491,55464,12389,44639,23359,0.656475,0.817414,0.554069,0.817414,0.445931,0.660459,0.736859,1.109323,0.368421
492,55440,12413,44622,23376,0.656225,0.81706,0.554056,0.81706,0.445944,0.660334,0.736557,1.109297,0.369863
493,55427,12426,44594,23404,0.655813,0.816869,0.554154,0.816869,0.445846,0.66034,0.736255,1.109491,0.37037
494,55367,12486,44553,23445,0.65521,0.815985,0.554113,0.815985,0.445887,0.660023,0.735512,1.109411,0.370787
495,55355,12498,44529,23469,0.654857,0.815808,0.554193,0.815808,0.445807,0.660021,0.735247,1.10957,0.370968
496,55313,12540,44465,23533,0.653916,0.815189,0.554361,0.815189,0.445639,0.659938,0.734466,1.109906,0.371429
497,55286,12567,44433,23565,0.653446,0.814791,0.554418,0.814791,0.445582,0.659848,0.734032,1.110021,0.372093
498,55269,12584,44417,23581,0.65321,0.81454,0.554431,0.81454,0.445569,0.659775,0.733789,1.110047,0.372549
499,55242,12611,44384,23614,0.652725,0.814142,0.554494,0.814142,0.445506,0.659689,0.733348,1.110173,0.372781
500,55198,12655,44329,23669,0.651916,0.813494,0.554603,0.813494,0.445397,0.659553,0.732619,1.110392,0.373134
501,55152,12701,44255,23743,0.650828,0.812816,0.55481,0.812816,0.44519,0.659476,0.731736,1.110806,0.373494
502,55139,12714,44238,23760,0.650578,0.812624,0.554847,0.812624,0.445153,0.659439,0.731515,1.110879,0.373626
503,55117,12736,44212,23786,0.650196,0.8123,0.554893,0.8123,0.445107,0.659365,0.731161,1.110972,0.373913
504,55094,12759,44189,23809,0.649857,0.811961,0.554919,0.811961,0.445081,0.659271,0.730823,1.111023,0.375
505,54917,12936,43980,24018,0.646784,0.809353,0.555295,0.809353,0.444705,0.658675,0.727981,1.111776,0.376812
506,54789,13064,43806,24192,0.644225,0.807466,0.555698,0.807466,0.444302,0.658332,0.725758,1.112583,0.377273
507,54742,13111,43743,24255,0.643298,0.806773,0.555841,0.806773,0.444159,0.658202,0.724949,1.11287,0.377358
508,54729,13124,43712,24286,0.642842,0.806582,0.555957,0.806582,0.444043,0.65822,0.724625,1.113103,0.377953
509,54729,13124,43711,24287,0.642828,0.806582,0.555963,0.806582,0.444037,0.658224,0.724617,1.113114,0.378378
510,54700,13153,43667,24331,0.642181,0.806154,0.556081,0.806154,0.443919,0.658164,0.72408,1.11335,0.378481
511,54549,13304,43423,24575,0.638592,0.803929,0.556782,0.803929,0.443218,0.65791,0.721172,1.114753,0.378719
512,54495,13358,43346,24652,0.63746,0.803133,0.556975,0.803133,0.443025,0.657779,0.720208,1.11514,0.378788
513,54480,13373,43327,24671,0.637181,0.802912,0.557015,0.802912,0.442985,0.657733,0.719958,1.115221,0.37931
514,54446,13407,43284,24714,0.636548,0.802411,0.557106,0.802411,0.442894,0.657628,0.719391,1.115403,0.379968
515,54396,13457,43230,24768,0.635754,0.801674,0.557188,0.801674,0.442812,0.657437,0.718626,1.115566,0.38
516,54365,13488,43202,24796,0.635342,0.801217,0.557207,0.801217,0.442793,0.657297,0.718191,1.115604,0.380435
517,54356,13497,43191,24807,0.63518,0.801085,0.557229,0.801085,0.442771,0.657267,0.718044,1.115648,0.380952
518,54319,13534,43131,24867,0.634298,0.800539,0.557404,0.800539,0.442596,0.657205,0.71733,1.115999,0.381443
519,54279,13574,43087,24911,0.633651,0.79995,0.557474,0.79995,0.442526,0.657055,0.716712,1.116139,0.381616
520,54245,13608,43046,24952,0.633048,0.799449,0.557554,0.799449,0.442446,0.656942,0.71616,1.1163,0.381818
521,54236,13617,43030,24968,0.632813,0.799316,0.557605,0.799316,0.442395,0.656932,0.715976,1.116401,0.382199
522,54189,13664,42978,25020,0.632048,0.798623,0.557689,0.798623,0.442311,0.656757,0.715247,1.11657,0.382353
523,54073,13780,42807,25191,0.629533,0.796914,0.558144,0.796914,0.441856,0.656493,0.713134,1.117481,0.382716
524,54048,13805,42781,25217,0.629151,0.796545,0.55818,0.796545,0.44182,0.656392,0.712759,1.117553,0.382979
525,54015,13838,42750,25248,0.628695,0.796059,0.558208,0.796059,0.441792,0.656247,0.712288,1.117609,0.383333
526,54001,13852,42733,25265,0.628445,0.795853,0.558242,0.795853,0.441758,0.6562,0.71206,1.117677,0.384615
527,53813,14040,42503,25495,0.625063,0.793082,0.558713,0.793082,0.441287,0.655581,0.708983,1.11862,0.385246
528,53799,14054,42488,25510,0.624842,0.792876,0.558736,0.792876,0.441264,0.655526,0.708769,1.118666,0.385714
529,53791,14062,42466,25532,0.624518,0.792758,0.558827,0.792758,0.441173,0.655548,0.708548,1.118848,0.385965
530,53782,14071,42444,25554,0.624195,0.792625,0.558913,0.792625,0.441087,0.655562,0.70832,1.119021,0.386364
531,53743,14110,42403,25595,0.623592,0.79205,0.558973,0.79205,0.441027,0.655406,0.707731,1.11914,0.386667
532,53686,14167,42328,25670,0.622489,0.79121,0.559148,0.79121,0.440852,0.655239,0.70676,1.11949,0.386792
533,53662,14191,42293,25705,0.621974,0.790857,0.559241,0.790857,0.440759,0.655182,0.706325,1.119678,0.387019
534,53636,14217,42255,25743,0.621415,0.790474,0.559343,0.790474,0.440657,0.65512,0.705854,1.119882,0.387097
535,53603,14250,42208,25790,0.620724,0.789987,0.559466,0.789987,0.440534,0.655037,0.705265,1.120128,0.387387
536,53576,14277,42176,25822,0.620254,0.789589,0.559529,0.789589,0.440471,0.654943,0.704831,1.120253,0.387755
537,53559,14294,42145,25853,0.619798,0.789339,0.559632,0.789339,0.440368,0.654928,0.704478,1.120459,0.388235
538,53542,14311,42102,25896,0.619165,0.789088,0.559805,0.789088,0.440195,0.65496,0.704036,1.120807,0.388889
539,53441,14412,41998,26000,0.617636,0.7876,0.559949,0.7876,0.440051,0.654545,0.702527,1.121095,0.38961
540,53430,14423,41975,26023,0.617298,0.787438,0.560034,0.787438,0.439966,0.654547,0.702277,1.121264,0.390244
541,53399,14454,41939,26059,0.616768,0.786981,0.560102,0.786981,0.439898,0.654436,0.701784,1.121401,0.390392
542,53229,14624,41771,26227,0.614297,0.784475,0.560305,0.784475,0.439695,0.653706,0.699296,1.121808,0.391304
543,53146,14707,41670,26328,0.612812,0.783252,0.560517,0.783252,0.439483,0.653425,0.697941,1.122232,0.391608
544,53120,14733,41626,26372,0.612165,0.782869,0.560657,0.782869,0.439343,0.653387,0.697426,1.122512,0.392157
545,53070,14783,41557,26441,0.61115,0.782132,0.560834,0.782132,0.439166,0.65325,0.69655,1.122866,0.392857
546,53052,14801,41536,26462,0.610841,0.781867,0.560875,0.781867,0.439125,0.653185,0.696263,1.122948,0.393443
547,53041,14812,41518,26480,0.610577,0.781705,0.56093,0.781705,0.43907,0.653166,0.696049,1.123059,0.393617
548,53011,14842,41494,26504,0.610224,0.781262,0.560933,0.781262,0.439067,0.653014,0.695652,1.123065,0.393764
549,52948,14905,41418,26580,0.609106,0.780334,0.561092,0.780334,0.438908,0.652797,0.694629,1.123383,0.393939
550,52921,14932,41392,26606,0.608724,0.779936,0.561121,0.779936,0.438879,0.652677,0.694239,1.123441,0.394366
551,52910,14943,41366,26632,0.608341,0.779774,0.561224,0.779774,0.438776,0.65269,0.693966,1.123648,0.394737
552,52895,14958,41347,26651,0.608062,0.779553,0.561268,0.779553,0.438732,0.652642,0.693716,1.123735,0.394958
553,52884,14969,41334,26664,0.607871,0.779391,0.561294,0.779391,0.438706,0.652603,0.693539,1.123788,0.395062
554,52867,14986,41308,26690,0.607488,0.77914,0.56137,0.77914,0.43863,0.652566,0.693223,1.123939,0.395349
555,52861,14992,41299,26699,0.607356,0.779052,0.561395,0.779052,0.438605,0.652553,0.693112,1.123991,0.395833
556,52849,15004,41286,26712,0.607165,0.778875,0.561417,0.778875,0.438583,0.652505,0.692928,1.124034,0.396226
557,52831,15022,41267,26731,0.606885,0.77861,0.561447,0.77861,0.438553,0.652432,0.692656,1.124093,0.396341
558,52788,15065,41226,26772,0.606283,0.777976,0.561491,0.777976,0.438509,0.652239,0.692038,1.124182,0.396825
559,52773,15080,41214,26784,0.606106,0.777755,0.561493,0.777755,0.438507,0.652163,0.691839,1.124185,0.396947
560,52743,15110,41175,26823,0.605533,0.777313,0.561586,0.777313,0.438414,0.65207,0.691331,1.124371,0.397321
561,52728,15125,41140,26858,0.605018,0.777092,0.561725,0.777092,0.438275,0.652086,0.690963,1.12465,0.39759
562,52708,15145,41124,26874,0.604782,0.776797,0.561727,0.776797,0.438273,0.651984,0.690698,1.124655,0.397959
563,52678,15175,41096,26902,0.604371,0.776355,0.561755,0.776355,0.438245,0.651847,0.690271,1.12471,0.398148
564,52654,15199,41075,26923,0.604062,0.776001,0.561769,0.776001,0.438231,0.651731,0.68994,1.124737,0.398305
565,52578,15275,40996,27002,0.6029,0.774881,0.561887,0.774881,0.438113,0.651415,0.688799,1.124974,0.4
566,52571,15282,40980,27018,0.602665,0.774778,0.56195,0.774778,0.43805,0.651421,0.688629,1.125101,0.4
567,52256,15597,40574,27424,0.596694,0.770135,0.562921,0.770135,0.437079,0.650424,0.683322,1.127046,0.4
568,52243,15610,40564,27434,0.596547,0.769944,0.562921,0.769944,0.437079,0.650355,0.683153,1.127045,0.400326
569,51917,15936,39996,28002,0.588194,0.765139,0.564849,0.765139,0.435151,0.649913,0.676572,1.130906,0.40113
570,51870,15983,39939,28059,0.587356,0.764447,0.564977,0.764447,0.435023,0.649748,0.675807,1.131162,0.402299
571,51820,16033,39887,28111,0.586591,0.76371,0.56506,0.76371,0.43494,0.649536,0.675056,1.131328,0.402519
572,51709,16144,39720,28278,0.584135,0.762074,0.565565,0.762074,0.434435,0.649276,0.673009,1.132338,0.402778
573,51682,16171,39702,28296,0.58387,0.761676,0.565548,0.761676,0.434452,0.64912,0.672678,1.132304,0.403846
574,51654,16199,39679,28319,0.583532,0.761263,0.565557,0.761263,0.434443,0.648977,0.672303,1.132322,0.404255
575,51629,16224,39659,28339,0.583238,0.760895,0.565562,0.760895,0.434438,0.648846,0.671971,1.132332,0.40458
576,51622,16231,39640,28358,0.582958,0.760792,0.565646,0.760792,0.434354,0.648864,0.67178,1.132501,0.404762
577,51574,16279,39586,28412,0.582164,0.760084,0.565753,0.760084,0.434247,0.648677,0.671029,1.132714,0.405286
578,51552,16301,39569,28429,0.581914,0.75976,0.565753,0.75976,0.434247,0.648559,0.670742,1.132715,0.405405
579,51537,16316,39548,28450,0.581605,0.759539,0.565812,0.759539,0.434188,0.648517,0.670477,1.132833,0.405422
580,50612,17241,38262,29736,0.562693,0.745907,0.56948,0.745907,0.43052,0.645862,0.654202,1.140178,0.405941
581,50598,17255,38238,29760,0.56234,0.7457,0.569566,0.7457,0.430434,0.64584,0.653922,1.14035,0.40625
582,50548,17305,38205,29793,0.561855,0.744963,0.569536,0.744963,0.430464,0.645544,0.653311,1.140288,0.406375
583,50478,17375,38141,29857,0.560914,0.743932,0.569607,0.743932,0.430393,0.645202,0.652325,1.140431,0.40678
584,50460,17393,38123,29875,0.560649,0.743666,0.569635,0.743666,0.430365,0.64512,0.65206,1.140488,0.407407
585,50407,17446,38062,29936,0.559752,0.742885,0.56977,0.742885,0.43023,0.644912,0.651221,1.140758,0.408163
586,50395,17458,38049,29949,0.559561,0.742709,0.569796,0.742709,0.430204,0.644862,0.651037,1.140809,0.408412
587,49305,18548,36450,31548,0.536045,0.726644,0.574952,0.726644,0.425048,0.641959,0.631243,1.151132,0.408602
588,49268,18585,36390,31608,0.535163,0.726099,0.575171,0.726099,0.424829,0.641882,0.630529,1.151571,0.408759
589,49267,18586,36390,31608,0.535163,0.726084,0.575166,0.726084,0.424834,0.641873,0.630522,1.151561,0.408935
590,49193,18660,36313,31685,0.53403,0.724994,0.575316,0.724994,0.424684,0.64154,0.62941,1.151862,0.409091
591,49168,18685,36290,31708,0.533692,0.724625,0.575347,0.724625,0.424653,0.641415,0.629057,1.151923,0.409639
592,49154,18699,36268,31730,0.533369,0.724419,0.575426,0.724419,0.424574,0.641383,0.628792,1.152081,0.409836
593,49126,18727,36230,31768,0.53281,0.724006,0.575542,0.724006,0.424458,0.641294,0.628306,1.152315,0.41
594,49107,18746,36208,31790,0.532486,0.723726,0.575596,0.723726,0.424404,0.641217,0.628004,1.152423,0.410256
595,49098,18755,36201,31797,0.532383,0.723594,0.575599,0.723594,0.424401,0.641167,0.627886,1.152428,0.410509
596,48960,18893,36000,31998,0.529427,0.72156,0.576271,0.72156,0.423729,0.640783,0.625391,1.153774,0.410526
597,48934,18919,35973,32025,0.52903,0.721177,0.576325,0.721177,0.423675,0.640665,0.625001,1.153881,0.410714
598,48926,18927,35967,32031,0.528942,0.721059,0.576325,0.721059,0.423675,0.640619,0.624898,1.153883,0.410959
599,48902,18951,35953,32045,0.528736,0.720705,0.576301,0.720705,0.423699,0.640464,0.624618,1.153833,0.411111
600,48860,18993,35918,32080,0.528221,0.720086,0.576329,0.720086,0.423671,0.640237,0.624051,1.153889,0.411215
601,48838,19015,35891,32107,0.527824,0.719762,0.576402,0.719762,0.423598,0.640154,0.623691,1.154037,0.41125
602,48783,19070,35793,32205,0.526383,0.718951,0.576795,0.718951,0.423205,0.640075,0.622564,1.154822,0.411765
603,48695,19158,35647,32351,0.524236,0.717654,0.577352,0.717654,0.422648,0.639903,0.620842,1.155937,0.412131
604,48603,19250,35539,32459,0.522648,0.716298,0.577631,0.716298,0.422369,0.639534,0.61937,1.156496,0.4125
605,48492,19361,35427,32571,0.521001,0.714663,0.577843,0.714663,0.422157,0.639011,0.617728,1.156921,0.412587
606,48487,19366,35415,32583,0.520824,0.714589,0.5779,0.714589,0.4221,0.639017,0.617603,1.157036,0.413043
607,48476,19377,35402,32596,0.520633,0.714427,0.577935,0.714427,0.422065,0.638973,0.617426,1.157104,0.413333
608,48460,19393,35374,32624,0.520221,0.714191,0.578047,0.714191,0.421953,0.638947,0.617103,1.157329,0.413793
609,48451,19402,35350,32648,0.519868,0.714058,0.578167,0.714058,0.421833,0.638968,0.61686,1.15757,0.414141
610,48429,19424,35314,32684,0.519339,0.713734,0.578305,0.713734,0.421695,0.638922,0.616433,1.157846,0.414634
611,48415,19438,35285,32713,0.518912,0.713528,0.578435,0.713528,0.421565,0.638918,0.616116,1.158106,0.414747
612,48362,19491,35223,32775,0.518001,0.712747,0.578597,0.712747,0.421403,0.638704,0.61527,1.15843,0.414847
613,48304,19549,35145,32853,0.516853,0.711892,0.578845,0.711892,0.421155,0.638511,0.614269,1.158926,0.414966
614,48270,19583,35116,32882,0.516427,0.711391,0.578874,0.711391,0.421126,0.638327,0.613805,1.158985,0.415094
615,48262,19591,35102,32896,0.516221,0.711273,0.578931,0.711273,0.421069,0.638314,0.613643,1.159099,0.415254
616,48217,19636,35027,32971,0.515118,0.71061,0.579225,0.71061,0.420775,0.638226,0.61276,1.159688,0.415493
617,48181,19672,34983,33015,0.514471,0.710079,0.579349,0.710079,0.420651,0.638087,0.612171,1.159937,0.415966
618,48107,19746,34910,33088,0.513397,0.708989,0.579484,0.708989,0.420516,0.637728,0.611089,1.160206,0.416667
619,48037,19816,34852,33146,0.512544,0.707957,0.579534,0.707957,0.420466,0.637341,0.610146,1.160307,0.417391
620,48010,19843,34819,33179,0.512059,0.707559,0.579628,0.707559,0.420372,0.637236,0.609705,1.160494,0.418605
621,47998,19855,34809,33189,0.511912,0.707382,0.579637,0.707382,0.420363,0.63717,0.609543,1.160513,0.418848
622,47986,19867,34789,33209,0.511618,0.707205,0.579716,0.707205,0.420284,0.637146,0.609307,1.160671,0.418941
623,47876,19977,34644,33354,0.509486,0.705584,0.580175,0.705584,0.419825,0.636763,0.60743,1.161589,0.419149
624,47651,20202,34318,33680,0.504691,0.702268,0.58133,0.702268,0.41867,0.636102,0.603374,1.163901,0.419355
625,47562,20291,34210,33788,0.503103,0.700956,0.581642,0.700956,0.418358,0.635749,0.601924,1.164526,0.419602
626,47426,20427,34019,33979,0.500294,0.698952,0.582307,0.698952,0.417693,0.63532,0.599517,1.165859,0.419786
627,47338,20515,33918,34080,0.498809,0.697655,0.582579,0.697655,0.417421,0.634945,0.598126,1.166402,0.42
628,47302,20551,33878,34120,0.498221,0.697125,0.58268,0.697125,0.41732,0.634786,0.597566,1.166606,0.42069
629,47226,20627,33753,34245,0.496382,0.696005,0.583188,0.696005,0.416812,0.634622,0.596087,1.167623,0.421053
630,47110,20743,33587,34411,0.493941,0.694295,0.583789,0.694295,0.416211,0.634265,0.594011,1.168825,0.421875
631,47054,20799,33528,34470,0.493073,0.69347,0.583927,0.69347,0.416073,0.634001,0.593165,1.169102,0.422222
632,47044,20809,33521,34477,0.49297,0.693322,0.583926,0.693322,0.416074,0.633939,0.593039,1.1691,0.422498
633,46669,21184,33058,34940,0.486161,0.687796,0.58536,0.687796,0.41464,0.632457,0.586871,1.171971,0.422619
634,46573,21280,32904,35094,0.483897,0.686381,0.585993,0.686381,0.414007,0.632227,0.585031,1.173239,0.423729
635,46553,21300,32888,35110,0.483661,0.686086,0.586007,0.686086,0.413993,0.63211,0.584766,1.173267,0.424
636,46544,21309,32877,35121,0.4835,0.685953,0.586041,0.685953,0.413959,0.632074,0.584618,1.173335,0.424242
637,46528,21325,32839,35159,0.482941,0.685718,0.586239,0.685718,0.413761,0.632088,0.584221,1.17373,0.424779
638,46511,21342,32793,35205,0.482264,0.685467,0.58649,0.685467,0.41351,0.632128,0.583757,1.174233,0.425
639,46497,21356,32789,35209,0.482205,0.685261,0.586447,0.685261,0.413553,0.632015,0.583625,1.174146,0.425197
640,46433,21420,32723,35275,0.481235,0.684318,0.586601,0.684318,0.413399,0.631703,0.582668,1.174456,0.425532
641,46413,21440,32702,35296,0.480926,0.684023,0.586652,0.684023,0.413348,0.631607,0.582366,1.174558,0.425926
642,46379,21474,32653,35345,0.480205,0.683522,0.586838,0.683522,0.413162,0.631501,0.581755,1.174931,0.42623
643,46355,21498,32626,35372,0.479808,0.683168,0.586913,0.683168,0.413087,0.631393,0.58138,1.175081,0.426471
644,46318,21535,32595,35403,0.479352,0.682623,0.58695,0.682623,0.41305,0.631182,0.580879,1.175155,0.426667
645,46282,21571,32561,35437,0.478852,0.682092,0.587015,0.682092,0.412985,0.630992,0.580364,1.175284,0.426829
646,46257,21596,32538,35460,0.478514,0.681724,0.587055,0.681724,0.412945,0.630858,0.58001,1.175365,0.426966
647,46241,21612,32528,35470,0.478367,0.681488,0.587046,0.681488,0.412954,0.630751,0.579819,1.175346,0.427345
648,45932,21921,32104,35894,0.472132,0.676934,0.5886,0.676934,0.4114,0.629684,0.574423,1.178458,0.42735
649,45906,21947,32070,35928,0.471632,0.676551,0.58872,0.676551,0.41128,0.629587,0.573982,1.178697,0.428571
650,45746,22107,31896,36102,0.469073,0.674193,0.589191,0.674193,0.410809,0.628833,0.571523,1.179642,0.429348
651,45738,22115,31883,36115,0.468881,0.674075,0.589248,0.674075,0.410752,0.628813,0.571369,1.179755,0.429448
652,45724,22129,31869,36129,0.468676,0.673869,0.58928,0.673869,0.41072,0.628742,0.571163,1.179819,0.429688
653,45685,22168,31821,36177,0.46797,0.673294,0.589438,0.673294,0.410562,0.628582,0.570522,1.180136,0.429752
654,45652,22201,31788,36210,0.467484,0.672807,0.589514,0.672807,0.410486,0.628413,0.570036,1.180289,0.431034
655,45632,22221,31750,36248,0.466925,0.672513,0.589698,0.672513,0.410302,0.628388,0.569609,1.180656,0.431373
656,45607,22246,31720,36278,0.466484,0.672144,0.589794,0.672144,0.410206,0.628282,0.569204,1.180848,0.431579
657,45558,22295,31670,36328,0.465749,0.671422,0.589916,0.671422,0.410084,0.628035,0.568476,1.181092,0.431818
658,45543,22310,31647,36351,0.465411,0.671201,0.590012,0.671201,0.409988,0.627993,0.568196,1.181284,0.432432
659,45525,22328,31618,36380,0.464984,0.670936,0.590138,0.670936,0.409862,0.627948,0.56785,1.181537,0.432836
660,45505,22348,31600,36398,0.46472,0.670641,0.590169,0.670641,0.409831,0.627837,0.56757,1.1816,0.433333
661,45421,22432,31487,36511,0.463058,0.669403,0.590589,0.669403,0.409411,0.627531,0.56612,1.18244,0.433735
662,45407,22446,31469,36529,0.462793,0.669197,0.590652,0.669197,0.409348,0.627476,0.565885,1.182567,0.434426
663,45397,22456,31453,36545,0.462558,0.669049,0.590722,0.669049,0.409278,0.627451,0.565693,1.182707,0.434783
664,45231,22622,31268,36730,0.459837,0.666603,0.591263,0.666603,0.408737,0.626676,0.56311,1.183789,0.435118
665,44876,22977,30838,37160,0.453513,0.661371,0.592704,0.661371,0.407296,0.625158,0.557331,1.186675,0.435897
666,44818,23035,30764,37234,0.452425,0.660516,0.592972,0.660516,0.407028,0.624924,0.55636,1.187211,0.436364
667,44779,23074,30725,37273,0.451852,0.659941,0.593068,0.659941,0.406932,0.62472,0.555785,1.187403,0.4375
668,44749,23104,30706,37292,0.451572,0.659499,0.593055,0.659499,0.406945,0.624515,0.555425,1.187378,0.4375
669,44666,23187,30625,37373,0.450381,0.658276,0.593245,0.658276,0.406755,0.624071,0.554217,1.187758,0.438202
670,44641,23212,30598,37400,0.449984,0.657908,0.593323,0.657908,0.406677,0.623948,0.553835,1.187913,0.438596
671,44624,23229,30582,37416,0.449749,0.657657,0.593357,0.657657,0.406643,0.623854,0.553592,1.187982,0.439024
672,44599,23254,30559,37439,0.44941,0.657289,0.593403,0.657289,0.406597,0.623714,0.553238,1.188075,0.439394
673,44582,23271,30538,37460,0.449101,0.657038,0.593477,0.657038,0.406523,0.623642,0.552959,1.188222,0.44
674,44541,23312,30493,37505,0.44844,0.656434,0.593611,0.656434,0.406389,0.623444,0.552326,1.18849,0.440082
675,44395,23458,30285,37713,0.445381,0.654282,0.59447,0.654282,0.40553,0.622943,0.54972,1.19021,0.440678
676,44382,23471,30263,37735,0.445057,0.65409,0.594574,0.65409,0.405426,0.622914,0.549462,1.190419,0.440945
677,44380,23473,30263,37735,0.445057,0.654061,0.594563,0.654061,0.405437,0.622895,0.549448,1.190397,0.441096
678,44336,23517,30236,37762,0.44466,0.653413,0.59454,0.653413,0.40546,0.622587,0.548925,1.19035,0.441176
679,44291,23562,30184,37814,0.443895,0.652749,0.59471,0.652749,0.40529,0.622379,0.548211,1.19069,0.441527
680,44248,23605,30149,37849,0.443381,0.652116,0.594755,0.652116,0.405245,0.622116,0.547637,1.190781,0.44153
681,44023,23830,29880,38118,0.439425,0.6488,0.595686,0.6488,0.404314,0.62111,0.544,1.192645,0.44186
682,43988,23865,29827,38171,0.438645,0.648284,0.595922,0.648284,0.404078,0.621001,0.543353,1.193118,0.442105
683,43959,23894,29804,38194,0.438307,0.647856,0.595949,0.647856,0.404051,0.62082,0.54297,1.193172,0.442308
684,43937,23916,29777,38221,0.43791,0.647532,0.596047,0.647532,0.403953,0.620724,0.542609,1.193368,0.442424
685,43838,24015,29696,38302,0.436719,0.646073,0.59616,0.646073,0.40384,0.620114,0.541284,1.193593,0.442478
686,43817,24036,29668,38330,0.436307,0.645764,0.596271,0.645764,0.403729,0.620031,0.540924,1.193817,0.443114
687,43799,24054,29658,38340,0.43616,0.645498,0.596254,0.645498,0.403746,0.6199,0.540717,1.193781,0.444444
688,43702,24151,29553,38445,0.434616,0.644069,0.596574,0.644069,0.403426,0.619412,0.53923,1.194422,0.445783
689,43684,24169,29534,38464,0.434336,0.643804,0.596629,0.643804,0.403371,0.619319,0.538958,1.194533,0.445946
690,43666,24187,29505,38493,0.43391,0.643538,0.596766,0.643538,0.403234,0.61927,0.538612,1.194808,0.44603
691,43363,24490,29192,38806,0.429307,0.639073,0.597657,0.639073,0.402343,0.617671,0.534078,1.196591,0.446429
692,43340,24513,29163,38835,0.42888,0.638734,0.597768,0.638734,0.402232,0.617572,0.533695,1.196814,0.446602
693,43339,24514,29163,38835,0.42888,0.638719,0.597763,0.638719,0.402237,0.617563,0.533688,1.196803,0.446809
694,43268,24585,29113,38885,0.428145,0.637673,0.597781,0.637673,0.402219,0.617083,0.532797,1.19684,0.446927
695,43250,24603,29096,38902,0.427895,0.637407,0.597822,0.637407,0.402178,0.61698,0.532539,1.196921,0.447115
696,43199,24654,29039,38959,0.427057,0.636656,0.598009,0.636656,0.401991,0.616728,0.531744,1.197297,0.447761
697,43179,24674,29026,38972,0.426865,0.636361,0.598006,0.636361,0.401994,0.616587,0.531501,1.197289,0.44898
698,43161,24692,29007,38991,0.426586,0.636096,0.598063,0.636096,0.401937,0.616493,0.531229,1.197404,0.45
699,43122,24731,28971,39027,0.426057,0.635521,0.598144,0.635521,0.401856,0.616266,0.530677,1.197566,0.450382
700,43109,24744,28956,39042,0.425836,0.635329,0.598196,0.635329,0.401804,0.616204,0.530471,1.19767,0.450549
701,43080,24773,28921,39077,0.425321,0.634902,0.598325,0.634902,0.401675,0.616071,0.53,1.197929,0.450704
702,43068,24785,28905,39093,0.425086,0.634725,0.598391,0.634725,0.401609,0.616023,0.529794,1.198061,0.451613
703,42999,24854,28820,39178,0.423836,0.633708,0.598713,0.633708,0.401287,0.615714,0.52866,1.198706,0.452096
704,42629,25224,28418,39580,0.417924,0.628255,0.600011,0.628255,0.399989,0.613808,0.522977,1.201305,0.452381
705,42592,25261,28379,39619,0.417351,0.62771,0.600132,0.62771,0.399868,0.613611,0.522418,1.201547,0.453125
706,42583,25270,28358,39640,0.417042,0.627577,0.600259,0.627577,0.399741,0.613614,0.522197,1.201801,0.453846
707,42474,25379,28258,39740,0.415571,0.625971,0.600492,0.625971,0.399508,0.612967,0.520659,1.202267,0.454545
708,42419,25434,28204,39794,0.414777,0.62516,0.60064,0.62516,0.39936,0.612655,0.519856,1.202564,0.454545
709,42414,25439,28203,39795,0.414762,0.625087,0.60062,0.625087,0.39938,0.612609,0.519812,1.202524,0.455696
710,42372,25481,28165,39833,0.414203,0.624468,0.600706,0.624468,0.399294,0.612356,0.519223,1.202696,0.456522
711,42355,25498,28143,39855,0.41388,0.624217,0.600797,0.624217,0.399203,0.612283,0.518936,1.202878,0.457143
712,42351,25502,28132,39866,0.413718,0.624158,0.600868,0.624158,0.399132,0.612292,0.518826,1.203021,0.457627
713,42336,25517,28093,39905,0.413145,0.623937,0.601116,0.623937,0.398884,0.612314,0.518428,1.203517,0.458221
714,42289,25564,28022,39976,0.4121,0.623244,0.601456,0.623244,0.398544,0.612157,0.51756,1.204198,0.458333
715,42277,25576,28009,39989,0.411909,0.623068,0.6015,0.623068,0.3985,0.612094,0.517376,1.204285,0.459259
716,42167,25686,27870,40128,0.409865,0.621446,0.602067,0.621446,0.397933,0.611603,0.515543,1.205422,0.459459
717,42145,25708,27844,40154,0.409483,0.621122,0.602166,0.621122,0.397834,0.611497,0.515189,1.205619,0.45977
718,42125,25728,27823,40175,0.409174,0.620827,0.602233,0.620827,0.397767,0.611389,0.514888,1.205753,0.46
719,42083,25770,27783,40215,0.408586,0.620208,0.602339,0.620208,0.397661,0.611143,0.514284,1.205965,0.460938
720,42072,25781,27773,40225,0.408438,0.620046,0.602362,0.620046,0.397638,0.611076,0.514129,1.206012,0.461538
721,42049,25804,27746,40252,0.408041,0.619707,0.602464,0.619707,0.397536,0.610964,0.513761,1.206216,0.461883
722,42025,25828,27705,40293,0.407438,0.619354,0.602682,0.619354,0.397318,0.610904,0.513283,1.206651,0.461942
723,41930,25923,27604,40394,0.405953,0.617954,0.603014,0.617954,0.396986,0.610393,0.51184,1.207317,0.462312
724,41822,26031,27497,40501,0.40438,0.616362,0.603327,0.616362,0.396673,0.609775,0.510258,1.207943,0.463158
725,41794,26059,27452,40546,0.403718,0.615949,0.603558,0.615949,0.396442,0.609691,0.50972,1.208406,0.463415
726,41758,26095,27396,40602,0.402894,0.615419,0.603841,0.615419,0.396159,0.609575,0.509043,1.208972,0.463446
727,41620,26233,27247,40751,0.400703,0.613385,0.604353,0.613385,0.395647,0.608836,0.50693,1.209998,0.464286
728,41603,26250,27216,40782,0.400247,0.613134,0.604528,0.613134,0.395472,0.608801,0.506577,1.210347,0.465167
729,40805,27048,26305,41693,0.38685,0.601374,0.608032,0.601374,0.391968,0.604684,0.493997,1.217363,0.465517
730,40795,27058,26287,41711,0.386585,0.601226,0.608136,0.601226,0.391864,0.604662,0.493791,1.217572,0.466667
731,40689,27164,26161,41837,0.384732,0.599664,0.608661,0.599664,0.391339,0.604129,0.492083,1.218623,0.467517
732,40482,27371,25927,42071,0.381291,0.596613,0.609586,0.596613,0.390414,0.60303,0.488837,1.220475,0.46875
733,40453,27400,25889,42109,0.380732,0.596186,0.609765,0.596186,0.390235,0.602899,0.488344,1.220832,0.469072
734,40387,27466,25846,42152,0.380099,0.595213,0.609772,0.595213,0.390228,0.602404,0.487541,1.220846,0.469512
735,40313,27540,25765,42233,0.378908,0.594123,0.610082,0.594123,0.389918,0.601997,0.486401,1.221468,0.469565
736,40289,27564,25739,42259,0.378526,0.593769,0.610181,0.593769,0.389819,0.601863,0.486032,1.221665,0.47026
737,40185,27668,25638,42360,0.377041,0.592236,0.610501,0.592236,0.389499,0.60123,0.484523,1.222306,0.470588
738,40160,27693,25592,42406,0.376364,0.591868,0.61078,0.591868,0.38922,0.601175,0.484001,1.222865,0.472222
739,40131,27722,25554,42444,0.375805,0.59144,0.610961,0.59144,0.389039,0.601042,0.483508,1.223228,0.47432
740,40131,27722,25553,42445,0.37579,0.59144,0.610971,0.59144,0.389029,0.601047,0.4835,1.223247,0.475
741,40120,27733,25538,42460,0.37557,0.591278,0.611045,0.591278,0.388955,0.600999,0.483309,1.223396,0.47541
742,40119,27734,25538,42460,0.37557,0.591263,0.611039,0.591263,0.388961,0.600989,0.483302,1.223384,0.47619
743,40090,27763,25517,42481,0.375261,0.590836,0.611063,0.590836,0.388937,0.600779,0.482934,1.223432,0.47651
744,40080,27773,25505,42493,0.375085,0.590689,0.611115,0.590689,0.388885,0.600728,0.482772,1.223537,0.477273
745,40064,27789,25485,42513,0.37479,0.590453,0.611207,0.590453,0.388793,0.600651,0.482507,1.22372,0.478261
746,40037,27816,25465,42533,0.374496,0.590055,0.611233,0.590055,0.388767,0.600457,0.482161,1.223773,0.479042
747,40018,27835,25454,42544,0.374335,0.589775,0.611223,0.589775,0.388777,0.600308,0.48194,1.223752,0.479167
748,40004,27849,25435,42563,0.374055,0.589569,0.611317,0.589569,0.388683,0.600246,0.481697,1.223941,0.48
749,39994,27859,25426,42572,0.373923,0.589421,0.611342,0.589421,0.388658,0.600182,0.481557,1.223991,0.482143
750,39981,27872,25410,42588,0.373687,0.58923,0.611414,0.58923,0.388586,0.600117,0.481344,1.224135,0.482609
751,39980,27873,25410,42588,0.373687,0.589215,0.611408,0.589215,0.388592,0.600107,0.481336,1.224124,0.482759
752,39955,27898,25385,42613,0.37332,0.588846,0.611494,0.588846,0.388506,0.599956,0.480968,1.224294,0.483333
753,39936,27917,25368,42630,0.37307,0.588566,0.61154,0.588566,0.38846,0.599833,0.480703,1.224387,0.484375
754,39922,27931,25358,42640,0.372923,0.58836,0.61155,0.58836,0.38845,0.599731,0.480526,1.224407,0.485437
755,39894,27959,25335,42663,0.372584,0.587947,0.611599,0.587947,0.388401,0.59954,0.480151,1.224505,0.486842
756,39881,27972,25327,42671,0.372467,0.587756,0.611597,0.587756,0.388403,0.599439,0.479996,1.2245,0.487805
757,39868,27985,25310,42688,0.372217,0.587564,0.611679,0.587564,0.388321,0.599379,0.479776,1.224665,0.489796
758,39855,27998,25291,42707,0.371937,0.587373,0.61178,0.587373,0.38822,0.599328,0.47954,1.224867,0.490385
759,39823,28030,25254,42744,0.371393,0.586901,0.611937,0.586901,0.388063,0.599157,0.479032,1.225181,0.494009
760,39823,28030,25252,42746,0.371364,0.586901,0.611955,0.586901,0.388045,0.599166,0.479017,1.225219,0.495082
761,39747,28106,25181,42817,0.37032,0.585781,0.61217,0.585781,0.38783,0.598685,0.477935,1.225649,0.5
762,39668,28185,25099,42899,0.369114,0.584617,0.612472,0.584617,0.387528,0.59822,0.47675,1.226254,0.509281
763,39507,28346,24956,43042,0.367011,0.582244,0.612863,0.582244,0.387137,0.597161,0.474513,1.227036,0.510638
764,39489,28364,24942,43056,0.366805,0.581979,0.612888,0.581979,0.387112,0.597034,0.474277,1.227086,0.511628
765,39485,28368,24928,43070,0.366599,0.58192,0.612997,0.58192,0.387003,0.597054,0.474144,1.227305,0.513514
766,39476,28377,24919,43079,0.366467,0.581787,0.613029,0.581787,0.386971,0.597,0.474012,1.227368,0.514286
767,39465,28388,24910,43088,0.366334,0.581625,0.613049,0.581625,0.386951,0.596923,0.473865,1.227407,0.515152
768,39447,28406,24905,43093,0.366261,0.58136,0.612988,0.58136,0.387012,0.596755,0.473695,1.227286,0.516129
769,39438,28415,24895,43103,0.366114,0.581227,0.613029,0.581227,0.386971,0.596705,0.473556,1.227368,0.517241
770,39432,28421,24880,43118,0.365893,0.581139,0.613136,0.581139,0.386864,0.596709,0.473401,1.227582,0.517361
771,39351,28502,24784,43214,0.364481,0.579945,0.613565,0.579945,0.386435,0.596281,0.472098,1.228441,0.517857
772,39331,28522,24768,43230,0.364246,0.57965,0.613598,0.57965,0.386402,0.596141,0.471833,1.228507,0.518519
773,39321,28532,24756,43242,0.36407,0.579503,0.613652,0.579503,0.386348,0.596089,0.471671,1.228616,0.519481
774,39313,28540,24737,43261,0.36379,0.579385,0.613786,0.579385,0.386214,0.59609,0.471472,1.228884,0.520833
775,39303,28550,24725,43273,0.363614,0.579237,0.613841,0.579237,0.386159,0.596037,0.47131,1.228993,0.521739
776,39302,28551,24718,43280,0.363511,0.579223,0.613902,0.579223,0.386098,0.596058,0.471252,1.229116,0.522472
777,39259,28594,24665,43333,0.362731,0.578589,0.614151,0.578589,0.385849,0.59584,0.470545,1.229615,0.522523
778,39231,28622,24627,43371,0.362172,0.578176,0.614347,0.578176,0.385653,0.595713,0.470059,1.230008,0.52381
779,39206,28647,24594,43404,0.361687,0.577808,0.614514,0.577808,0.385486,0.595596,0.469632,1.230341,0.525
780,39201,28652,24588,43410,0.361599,0.577734,0.614542,0.577734,0.385458,0.59557,0.469551,1.230397,0.525424
781,39118,28735,24507,43491,0.360408,0.576511,0.614821,0.576511,0.385179,0.59505,0.468344,1.230956,0.526316
782,39061,28792,24466,43532,0.359805,0.575671,0.614872,0.575671,0.385128,0.594626,0.467623,1.231059,0.526923
783,39060,28793,24466,43532,0.359805,0.575656,0.614866,0.575656,0.385134,0.594616,0.467615,1.231047,0.527273
784,39027,28826,24431,43567,0.35929,0.57517,0.615005,0.57517,0.384995,0.594421,0.467115,1.231325,0.52741
785,38894,28959,24277,43721,0.357025,0.57321,0.615694,0.57321,0.384306,0.593693,0.465002,1.232704,0.52766
786,38809,29044,24177,43821,0.355555,0.571957,0.616153,0.571957,0.383847,0.593233,0.46364,1.233622,0.527778
787,38789,29064,24150,43848,0.355158,0.571662,0.616295,0.571662,0.383705,0.59314,0.463294,1.233907,0.528701
788,38788,29065,24150,43848,0.355158,0.571648,0.616289,0.571648,0.383711,0.593129,0.463287,1.233895,0.529412
789,38785,29068,24146,43852,0.355099,0.571603,0.61631,0.571603,0.38369,0.593115,0.463235,1.233937,0.52973
790,38778,29075,24129,43869,0.354849,0.5715,0.616434,0.5715,0.383566,0.593117,0.463059,1.234185,0.529851
791,38762,29091,24115,43883,0.354643,0.571264,0.616473,0.571264,0.383527,0.593008,0.462838,1.234264,0.530612
792,38729,29124,24077,43921,0.354084,0.570778,0.616645,0.570778,0.383355,0.592826,0.462315,1.234608,0.53125
793,38692,29161,24034,43964,0.353452,0.570233,0.616842,0.570233,0.383158,0.592622,0.461726,1.235001,0.531816
794,37358,30495,22876,45122,0.336422,0.550573,0.620214,0.550573,0.379786,0.583322,0.443383,1.241754,0.532787
795,37345,30508,22865,45133,0.33626,0.550381,0.620246,0.550381,0.379754,0.583229,0.443206,1.241817,0.533333
796,37291,30562,22797,45201,0.33526,0.549585,0.620606,0.549585,0.379394,0.582941,0.442308,1.242539,0.534483
797,37262,30591,22774,45224,0.334922,0.549158,0.620661,0.549158,0.379339,0.582724,0.441925,1.242648,0.534884
798,37255,30598,22762,45236,0.334745,0.549055,0.620741,0.549055,0.379259,0.582701,0.441785,1.242808,0.536364
799,37230,30623,22744,45254,0.33448,0.548686,0.620769,0.548686,0.379231,0.582506,0.441469,1.242865,0.536585
800,37208,30645,22719,45279,0.334113,0.548362,0.620889,0.548362,0.379111,0.582376,0.441123,1.243104,0.537037
801,37192,30661,22704,45294,0.333892,0.548126,0.620943,0.548126,0.379057,0.582267,0.440895,1.243213,0.5375
802,37172,30681,22687,45311,0.333642,0.547831,0.620993,0.547831,0.379007,0.582122,0.440622,1.243312,0.537961
803,37144,30709,22664,45334,0.333304,0.547419,0.621054,0.547419,0.378946,0.581916,0.440247,1.243435,0.538462
804,37074,30779,22578,45420,0.332039,0.546387,0.621505,0.546387,0.378495,0.58153,0.439099,1.244338,0.539683
805,37051,30802,22551,45447,0.331642,0.546048,0.62164,0.546048,0.37836,0.581397,0.438731,1.244609,0.540541
806,37046,30807,22543,45455,0.331524,0.545974,0.621692,0.545974,0.378308,0.581378,0.438635,1.244712,0.540984
807,37036,30817,22526,45472,0.331274,0.545827,0.621806,0.545827,0.378194,0.581344,0.438436,1.24494,0.541176
808,37022,30831,22517,45481,0.331142,0.545621,0.621811,0.545621,0.378189,0.58123,0.438267,1.244951,0.541667
809,37011,30842,22506,45492,0.33098,0.545459,0.621856,0.545459,0.378144,0.581157,0.438105,1.245041,0.542601
810,36954,30899,22456,45542,0.330245,0.544619,0.622016,0.544619,0.377984,0.58075,0.437317,1.245362,0.542857
811,36900,30953,22406,45592,0.32951,0.543823,0.622197,0.543823,0.377803,0.580376,0.436552,1.245723,0.543103
812,36760,31093,22286,45712,0.327745,0.541759,0.622565,0.541759,0.377435,0.579358,0.434638,1.246461,0.543478
813,36745,31108,22272,45726,0.327539,0.541538,0.622617,0.541538,0.377383,0.579254,0.434424,1.246565,0.543624
814,36721,31132,22235,45763,0.326995,0.541185,0.622854,0.541185,0.377146,0.579154,0.433975,1.24704,0.54386
815,36703,31150,22203,45795,0.326524,0.540919,0.623077,0.540919,0.376923,0.579099,0.433607,1.247486,0.544218
816,36662,31191,22152,45846,0.325774,0.540315,0.623355,0.540315,0.376645,0.578872,0.43293,1.248042,0.545455
817,36599,31254,22092,45906,0.324892,0.539387,0.623588,0.539387,0.376412,0.578439,0.432025,1.248508,0.546875
818,36586,31267,22071,45927,0.324583,0.539195,0.623728,0.539195,0.376272,0.578389,0.431775,1.248788,0.547368
819,36552,31301,22035,45963,0.324054,0.538694,0.623893,0.538694,0.376107,0.578171,0.431259,1.249119,0.547619
820,36504,31349,21964,46034,0.32301,0.537987,0.624342,0.537987,0.375658,0.577956,0.430383,1.250017,0.547945
821,36491,31362,21951,46047,0.322818,0.537795,0.624397,0.537795,0.375603,0.577869,0.430192,1.250128,0.548387
822,36463,31390,21926,46072,0.322451,0.537382,0.624484,0.537382,0.375516,0.577668,0.429802,1.250303,0.54902
823,36446,31407,21919,46079,0.322348,0.537132,0.62445,0.537132,0.37555,0.577509,0.429625,1.250234,0.55
824,36399,31454,21866,46132,0.321568,0.536439,0.624715,0.536439,0.375285,0.577221,0.428889,1.250764,0.55102
825,36362,31491,21816,46182,0.320833,0.535894,0.625013,0.535894,0.374987,0.577033,0.428249,1.251361,0.551181
826,36334,31519,21792,46206,0.32048,0.535481,0.62509,0.535481,0.37491,0.576826,0.427866,1.251516,0.551724
827,36013,31840,21553,46445,0.316965,0.53075,0.625595,0.53075,0.374405,0.574283,0.423744,1.252527,0.551839
828,35927,31926,21489,46509,0.316024,0.529483,0.625732,0.529483,0.374268,0.573598,0.42264,1.2528,0.552064
829,35147,32706,20890,47108,0.307215,0.517987,0.627211,0.517987,0.372789,0.56739,0.412489,1.255762,0.552083
830,35142,32711,20890,47108,0.307215,0.517914,0.627177,0.517914,0.372823,0.567333,0.412452,1.255695,0.552632
831,35123,32730,20882,47116,0.307097,0.517634,0.62714,0.517634,0.37286,0.567149,0.412253,1.255621,0.553191
832,35098,32755,20859,47139,0.306759,0.517265,0.627232,0.517265,0.372768,0.566966,0.4119,1.255804,0.553571
833,35030,32823,20787,47211,0.3057,0.516263,0.627587,0.516263,0.372413,0.566508,0.410869,1.256514,0.554054
834,35025,32828,20784,47214,0.305656,0.516189,0.627587,0.516189,0.372413,0.566463,0.41081,1.256515,0.555556
835,34875,32978,20634,47364,0.30345,0.513979,0.628276,0.513979,0.371724,0.565409,0.408602,1.257896,0.557377
836,34858,32995,20617,47381,0.3032,0.513728,0.628355,0.513728,0.371645,0.565289,0.408352,1.258053,0.557692
837,34842,33011,20610,47388,0.303097,0.513492,0.628327,0.513492,0.371673,0.565135,0.408182,1.257997,0.557769
838,34818,33035,20588,47410,0.302774,0.513139,0.628416,0.513139,0.371584,0.564957,0.407844,1.258174,0.55814
839,34787,33066,20569,47429,0.302494,0.512682,0.628423,0.512682,0.371577,0.564683,0.407476,1.25819,0.558824
840,34781,33072,20564,47434,0.302421,0.512593,0.62844,0.512593,0.37156,0.564636,0.407395,1.258223,0.558961
841,34614,33239,20423,47575,0.300347,0.510132,0.628922,0.510132,0.371078,0.563333,0.405128,1.259189,0.559322
842,34579,33274,20389,47609,0.299847,0.509616,0.629075,0.509616,0.370925,0.56308,0.40462,1.259495,0.56
843,34570,33283,20380,47618,0.299715,0.509484,0.629117,0.509484,0.370883,0.563016,0.404487,1.259579,0.561404
844,34534,33319,20345,47653,0.2992,0.508953,0.629275,0.508953,0.370725,0.562755,0.403965,1.259895,0.561538
845,34515,33338,20328,47670,0.29895,0.508673,0.629342,0.508673,0.370658,0.56261,0.4037,1.260029,0.561798
846,34492,33361,20309,47689,0.298671,0.508334,0.629405,0.508334,0.370595,0.562428,0.40339,1.260154,0.5625
847,34326,33527,20183,47815,0.296818,0.505888,0.629731,0.505888,0.370269,0.561057,0.401241,1.260807,0.56338
848,34301,33552,20169,47829,0.296612,0.505519,0.629723,0.505519,0.370277,0.560827,0.400954,1.260791,0.563636
849,34286,33567,20154,47844,0.296391,0.505298,0.629794,0.505298,0.370206,0.560719,0.400733,1.260934,0.563636
850,34277,33576,20150,47848,0.296332,0.505166,0.629779,0.505166,0.370221,0.560631,0.400637,1.260904,0.564103
851,34182,33671,20060,47938,0.295009,0.503765,0.630176,0.503765,0.369824,0.559925,0.399276,1.261698,0.564246
852,34160,33693,20042,47956,0.294744,0.503441,0.630235,0.503441,0.369765,0.559748,0.398981,1.261817,0.564516
853,34146,33707,20032,47966,0.294597,0.503235,0.630256,0.503235,0.369744,0.559628,0.398805,1.261858,0.565217
854,34062,33791,19946,48052,0.293332,0.501997,0.630684,0.501997,0.369316,0.55903,0.397553,1.262716,0.565574
855,33997,33856,19894,48104,0.292567,0.501039,0.630847,0.501039,0.369153,0.5585,0.396692,1.263043,0.565891
856,33960,33893,19855,48143,0.291994,0.500494,0.631051,0.500494,0.368949,0.55824,0.396133,1.26345,0.566038
857,33945,33908,19848,48150,0.291891,0.500273,0.63103,0.500273,0.36897,0.558095,0.395971,1.263409,0.566667
858,33840,34013,19737,48261,0.290259,0.498725,0.631614,0.498725,0.368386,0.557358,0.394381,1.264578,0.567164
859,33818,34035,19716,48282,0.28995,0.498401,0.631711,0.498401,0.368289,0.557193,0.394064,1.264771,0.567568
860,33762,34091,19670,48328,0.289273,0.497576,0.631869,0.497576,0.368131,0.556738,0.393313,1.265087,0.568182
861,33687,34166,19593,48405,0.288141,0.49647,0.632264,0.49647,0.367736,0.556199,0.392194,1.265878,0.568627
862,33665,34188,19559,48439,0.287641,0.496146,0.632515,0.496146,0.367485,0.556092,0.391782,1.266382,0.568966
863,33638,34215,19544,48454,0.28742,0.495748,0.632507,0.495748,0.367493,0.555839,0.391473,1.266366,0.570313
864,33605,34248,19504,48494,0.286832,0.495262,0.632755,0.495262,0.367245,0.555629,0.390936,1.266863,0.570423
865,33578,34275,19466,48532,0.286273,0.494864,0.633022,0.494864,0.366978,0.555481,0.390457,1.267396,0.570627
866,32996,34857,18977,49021,0.279082,0.486287,0.634868,0.486287,0.365132,0.550732,0.382574,1.271093,0.571429
867,32909,34944,18878,49120,0.277626,0.485004,0.635468,0.485004,0.364532,0.550134,0.381204,1.272295,0.572727
868,32882,34971,18857,49141,0.277317,0.484606,0.635536,0.484606,0.364464,0.549903,0.380851,1.27243,0.572816
869,32853,35000,18823,49175,0.276817,0.484179,0.63575,0.484179,0.36425,0.549708,0.380387,1.272858,0.57377
870,32841,35012,18809,49189,0.276611,0.484002,0.635837,0.484002,0.364163,0.549626,0.380196,1.273034,0.573789
871,32765,35088,18753,49245,0.275788,0.482882,0.635991,0.482882,0.364009,0.548961,0.379224,1.273342,0.573964
872,32745,35108,18718,49280,0.275273,0.482587,0.636282,0.482587,0.363718,0.548879,0.378819,1.273924,0.574074
873,32736,35117,18711,49287,0.27517,0.482455,0.636305,0.482455,0.363695,0.548801,0.378702,1.27397,0.574468
874,32723,35130,18701,49297,0.275023,0.482263,0.636337,0.482263,0.363663,0.548689,0.378532,1.274034,0.575
875,32670,35183,18663,49335,0.274464,0.481482,0.636433,0.481482,0.363567,0.548219,0.377863,1.274225,0.575758
876,32592,35261,18575,49423,0.27317,0.480332,0.636973,0.480332,0.363027,0.547673,0.376641,1.275307,0.576577
877,32540,35313,18517,49481,0.272317,0.479566,0.637327,0.479566,0.362673,0.547305,0.375831,1.276016,0.576923
878,32459,35394,18462,49536,0.271508,0.478372,0.637438,0.478372,0.362562,0.546567,0.37483,1.276239,0.576959
879,32374,35479,18375,49623,0.270229,0.47712,0.637924,0.47712,0.362076,0.545927,0.373564,1.277211,0.577465
880,32351,35502,18359,49639,0.269993,0.476781,0.637961,0.476781,0.362039,0.545718,0.373277,1.277285,0.577519
881,32287,35566,18283,49715,0.268876,0.475837,0.638462,0.475837,0.361538,0.545283,0.372246,1.278287,0.577713
882,32287,35566,18282,49716,0.268861,0.475837,0.638474,0.475837,0.361526,0.545287,0.372239,1.278313,0.577778
883,32220,35633,18194,49804,0.267567,0.47485,0.639108,0.47485,0.360892,0.544869,0.371098,1.279582,0.57783
884,32105,35748,18099,49899,0.26617,0.473155,0.639491,0.473155,0.360509,0.54389,0.369552,1.280348,0.578125
885,32088,35765,18087,49911,0.265993,0.472905,0.639522,0.472905,0.360478,0.543735,0.369338,1.28041,0.578378
886,32077,35776,18071,49927,0.265758,0.472743,0.639647,0.472743,0.360353,0.543673,0.36914,1.28066,0.578947
887,32006,35847,18008,49990,0.264831,0.471696,0.639941,0.471696,0.360059,0.543087,0.368153,1.281249,0.579268
888,31993,35860,17992,50006,0.264596,0.471505,0.640052,0.471505,0.359948,0.543,0.36794,1.281472,0.579545
889,31967,35886,17963,50035,0.26417,0.471121,0.640236,0.471121,0.359764,0.542812,0.367535,1.281841,0.58
890,31929,35924,17920,50078,0.263537,0.470561,0.640514,0.470561,0.359486,0.54254,0.366939,1.282397,0.580067
891,31832,36021,17850,50148,0.262508,0.469132,0.640715,0.469132,0.359285,0.54166,0.365709,1.282799,0.580247
892,31807,36046,17835,50163,0.262287,0.468763,0.640728,0.468763,0.359272,0.541419,0.365415,1.282824,0.580645
893,31719,36134,17756,50242,0.261125,0.467466,0.641112,0.467466,0.358888,0.540689,0.364186,1.283593,0.581395
894,31678,36175,17724,50274,0.260655,0.466862,0.641229,0.466862,0.358771,0.540327,0.363648,1.283828,0.581633
895,31652,36201,17711,50287,0.260464,0.466479,0.641209,0.466479,0.358791,0.540063,0.363361,1.283788,0.581818
896,31634,36219,17699,50299,0.260287,0.466214,0.641234,0.466214,0.358766,0.539894,0.36314,1.283838,0.582278
897,31625,36228,17684,50314,0.260066,0.466081,0.641364,0.466081,0.358636,0.539851,0.362964,1.284098,0.582418
898,31602,36251,17666,50332,0.259802,0.465742,0.641431,0.465742,0.358569,0.539647,0.362662,1.284232,0.583333
899,31517,36336,17601,50397,0.258846,0.464489,0.641659,0.464489,0.358341,0.538886,0.361558,1.284689,0.583942
900,31505,36348,17588,50410,0.258655,0.464313,0.641741,0.464313,0.358259,0.538796,0.361374,1.284854,0.584158
901,31495,36358,17574,50424,0.258449,0.464165,0.641851,0.464165,0.358149,0.538735,0.361197,1.285074,0.584906
902,31443,36410,17504,50494,0.257419,0.463399,0.642389,0.463399,0.357611,0.538408,0.360299,1.28615,0.585366
903,31411,36442,17471,50527,0.256934,0.462927,0.642588,0.462927,0.357412,0.538159,0.359821,1.28655,0.585455
904,31385,36468,17439,50559,0.256463,0.462544,0.642819,0.462544,0.357181,0.537981,0.359394,1.287012,0.586207
905,31359,36494,17428,50570,0.256302,0.462161,0.642774,0.462161,0.357226,0.537706,0.359121,1.286921,0.586957
906,31323,36530,17416,50582,0.256125,0.46163,0.642668,0.46163,0.357332,0.53731,0.358768,1.28671,0.587242
907,30883,36970,17068,50930,0.251007,0.455146,0.644053,0.455146,0.355947,0.533367,0.352968,1.289483,0.587302
908,30812,37041,17023,50975,0.250346,0.454099,0.644131,0.454099,0.355869,0.532674,0.352114,1.289638,0.588235
909,30749,37104,16958,51040,0.24939,0.453171,0.644539,0.453171,0.355461,0.532174,0.351172,1.290454,0.589286
910,30721,37132,16931,51067,0.248993,0.452758,0.644695,0.452758,0.355305,0.531942,0.350767,1.290767,0.589316
911,30592,37261,16846,51152,0.247743,0.450857,0.644884,0.450857,0.355116,0.530692,0.349191,1.291146,0.589474
912,30588,37265,16840,51158,0.247654,0.450798,0.644935,0.450798,0.355065,0.530669,0.349118,1.291249,0.589744
913,30562,37291,16808,51190,0.247184,0.450415,0.645176,0.450415,0.354824,0.530484,0.348691,1.291731,0.590909
914,30480,37373,16742,51256,0.246213,0.449206,0.645462,0.449206,0.354538,0.529741,0.347601,1.292303,0.591398
915,30469,37384,16734,51264,0.246095,0.449044,0.645489,0.449044,0.354511,0.529638,0.347462,1.292357,0.591549
916,30430,37423,16702,51296,0.245625,0.448469,0.645634,0.448469,0.354366,0.529286,0.346939,1.292647,0.591623
917,30407,37446,16682,51316,0.245331,0.448131,0.645735,0.448131,0.354265,0.529084,0.346622,1.292849,0.591837
918,30393,37460,16676,51322,0.245243,0.447924,0.645712,0.447924,0.354288,0.528933,0.346475,1.292803,0.592593
919,30331,37522,16602,51396,0.244154,0.44701,0.646262,0.44701,0.353738,0.528479,0.345474,1.293904,0.59292
920,30299,37554,16580,51418,0.243831,0.446539,0.646324,0.446539,0.353676,0.52817,0.345077,1.294028,0.59322
921,30239,37614,16542,51456,0.243272,0.445655,0.646395,0.445655,0.353605,0.527575,0.344355,1.294171,0.59375
922,30144,37709,16456,51542,0.242007,0.444254,0.646867,0.444254,0.353133,0.526749,0.343023,1.295116,0.59434
923,30111,37742,16410,51588,0.241331,0.443768,0.647256,0.443768,0.352744,0.526536,0.342441,1.295895,0.594595
924,30066,37787,16364,51634,0.240654,0.443105,0.647555,0.443105,0.352445,0.526167,0.341771,1.296495,0.595238
925,29994,37859,16306,51692,0.239801,0.442044,0.647819,0.442044,0.352181,0.525505,0.340815,1.297022,0.595745
926,29974,37879,16287,51711,0.239522,0.441749,0.647932,0.441749,0.352068,0.525334,0.340527,1.297249,0.596059
927,29915,37938,16244,51754,0.238889,0.44088,0.648086,0.44088,0.351914,0.524769,0.339777,1.297557,0.596154
928,29903,37950,16227,51771,0.238639,0.440703,0.648233,0.440703,0.351767,0.524692,0.339563,1.297852,0.5962
929,29688,38165,16039,51959,0.235875,0.437534,0.649244,0.437534,0.350756,0.522768,0.336597,1.299876,0.596721
930,29668,38185,16021,51977,0.23561,0.437239,0.649347,0.437239,0.350653,0.522591,0.336317,1.300081,0.596774
931,29648,38205,16005,51993,0.235375,0.436945,0.649421,0.436945,0.350579,0.522404,0.336052,1.300229,0.597015
932,29629,38224,15986,52012,0.235095,0.436665,0.649545,0.436665,0.350455,0.522244,0.335772,1.300478,0.597444
933,29320,38533,15741,52257,0.231492,0.432111,0.650674,0.432111,0.349326,0.519333,0.331694,1.302738,0.597561
934,29298,38555,15714,52284,0.231095,0.431786,0.650893,0.431786,0.349107,0.519169,0.331334,1.303177,0.597701
935,29258,38595,15672,52326,0.230477,0.431197,0.651191,0.431197,0.348809,0.518837,0.33073,1.303773,0.597938
936,29238,38615,15646,52352,0.230095,0.430902,0.651413,0.430902,0.348587,0.518694,0.330391,1.304217,0.597977
937,29156,38697,15587,52411,0.229227,0.429694,0.651633,0.429694,0.348367,0.517887,0.329353,1.304658,0.6
938,28869,38984,15304,52694,0.225065,0.425464,0.653544,0.425464,0.346456,0.515398,0.325158,1.308485,0.600939
939,28700,39153,15214,52784,0.223742,0.422973,0.65355,0.422973,0.34645,0.513568,0.323251,1.308497,0.601036
940,28631,39222,15182,52816,0.223271,0.421956,0.653482,0.421956,0.346518,0.512797,0.322508,1.30836,0.601266
941,28617,39236,15155,52843,0.222874,0.42175,0.653774,0.42175,0.346226,0.512735,0.322206,1.308945,0.60177
942,28537,39316,15088,52910,0.221889,0.420571,0.654143,0.420571,0.345857,0.511975,0.321124,1.309684,0.601942
943,28503,39350,15059,52939,0.221462,0.42007,0.654309,0.42007,0.345691,0.511655,0.32066,1.310016,0.602151
944,28489,39364,15044,52954,0.221242,0.419864,0.654423,0.419864,0.345577,0.511536,0.320447,1.310245,0.602484
945,28447,39406,15007,52991,0.220698,0.419245,0.654646,0.419245,0.345354,0.511145,0.319865,1.310692,0.602634
946,28316,39537,14894,53104,0.219036,0.417314,0.655311,0.417314,0.344689,0.509909,0.318069,1.312023,0.603175
947,28302,39551,14874,53124,0.218742,0.417108,0.655503,0.417108,0.344497,0.509813,0.317819,1.312407,0.603448
948,28263,39590,14844,53154,0.218301,0.416533,0.655648,0.416533,0.344352,0.509427,0.317311,1.312696,0.60396
949,28243,39610,14812,53186,0.21783,0.416238,0.655975,0.416238,0.344025,0.509305,0.316928,1.313352,0.604167
950,28219,39634,14785,53213,0.217433,0.415884,0.656195,0.415884,0.343805,0.509106,0.316553,1.313792,0.604396
951,28194,39659,14766,53232,0.217153,0.415516,0.656285,0.415516,0.343715,0.508857,0.316229,1.313972,0.604651
952,28154,39699,14740,53258,0.216771,0.414926,0.656362,0.414926,0.343638,0.508438,0.315743,1.314127,0.60479
953,28100,39753,14689,53309,0.216021,0.414131,0.656711,0.414131,0.343289,0.507945,0.31497,1.314825,0.604839
954,28005,39848,14624,53374,0.215065,0.41273,0.656947,0.41273,0.343053,0.50696,0.313792,1.315298,0.605263
955,27972,39881,14607,53391,0.214815,0.412244,0.656944,0.412244,0.343056,0.506592,0.313424,1.315291,0.605769
956,27945,39908,14587,53411,0.214521,0.411846,0.657035,0.411846,0.342965,0.506319,0.313078,1.315473,0.605839
957,27935,39918,14564,53434,0.214183,0.411699,0.65731,0.411699,0.34269,0.506289,0.312835,1.316024,0.606061
958,27883,39970,14537,53461,0.213786,0.410932,0.657308,0.410932,0.342692,0.505709,0.312254,1.31602,0.606557
959,27804,40049,14485,53513,0.213021,0.409768,0.657476,0.409768,0.342524,0.504876,0.31129,1.316357,0.606695
960,27729,40124,14429,53569,0.212197,0.408663,0.65774,0.408663,0.34226,0.504113,0.310325,1.316885,0.607143
961,27717,40136,14408,53590,0.211889,0.408486,0.65797,0.408486,0.34203,0.504046,0.310082,1.317347,0.607843
962,27674,40179,14378,53620,0.211447,0.407852,0.65809,0.407852,0.34191,0.503599,0.309545,1.317586,0.608247
963,27627,40226,14344,53654,0.210947,0.40716,0.65824,0.40716,0.34176,0.503114,0.308949,1.317887,0.608696
964,27615,40238,14332,53666,0.210771,0.406983,0.658331,0.406983,0.341669,0.503005,0.308772,1.318068,0.609375
965,27573,40280,14292,53706,0.210183,0.406364,0.658617,0.406364,0.341383,0.502616,0.308169,1.318641,0.609756
966,27523,40330,14242,53756,0.209447,0.405627,0.658997,0.405627,0.341003,0.502162,0.307432,1.319402,0.610169
967,27499,40354,14235,53763,0.209344,0.405273,0.658911,0.405273,0.341089,0.501866,0.307204,1.31923,0.611111
968,27419,40434,14177,53821,0.208491,0.404094,0.659174,0.404094,0.340826,0.501037,0.306188,1.319757,0.611319
969,27250,40603,14029,53969,0.206315,0.401603,0.660142,0.401603,0.339858,0.499395,0.303855,1.321695,0.61165
970,27223,40630,14004,53994,0.205947,0.401206,0.66032,0.401206,0.33968,0.499138,0.303472,1.32205,0.611765
971,27205,40648,13977,54021,0.20555,0.40094,0.660604,0.40094,0.339396,0.499014,0.303141,1.32262,0.61194
972,27183,40670,13952,54046,0.205183,0.400616,0.660824,0.400616,0.339176,0.498826,0.302795,1.32306,0.612069
973,27172,40681,13943,54055,0.20505,0.400454,0.660878,0.400454,0.339122,0.498715,0.302648,1.323168,0.612245
974,27105,40748,13862,54136,0.203859,0.399466,0.66163,0.399466,0.33837,0.498162,0.301558,1.324674,0.612717
975,27074,40779,13811,54187,0.203109,0.39901,0.662199,0.39901,0.337801,0.497968,0.300955,1.325813,0.612903
976,27023,40830,13752,54246,0.202241,0.398258,0.662735,0.398258,0.337265,0.497533,0.300145,1.326885,0.613636
977,26986,40867,13711,54287,0.201638,0.397713,0.663096,0.397713,0.336904,0.497209,0.299571,1.327608,0.613793
978,26950,40903,13692,54306,0.201359,0.397182,0.663107,0.397182,0.336893,0.496797,0.299166,1.327631,0.613861
979,26941,40912,13690,54308,0.201329,0.39705,0.663065,0.39705,0.336935,0.496682,0.299085,1.327547,0.614035
980,26921,40932,13672,54326,0.201065,0.396755,0.663193,0.396755,0.336807,0.496487,0.298805,1.327804,0.615023
981,26694,41159,13508,54490,0.198653,0.393409,0.663997,0.393409,0.336003,0.494082,0.295927,1.329413,0.615385
982,26550,41303,13385,54613,0.196844,0.391287,0.66483,0.391287,0.33517,0.492634,0.293962,1.331081,0.616633
983,26515,41338,13357,54641,0.196432,0.390771,0.665003,0.390771,0.334997,0.492272,0.293498,1.331427,0.616667
984,26497,41356,13345,54653,0.196256,0.390506,0.665052,0.390506,0.334948,0.492075,0.293277,1.331525,0.617021
985,26424,41429,13311,54687,0.195756,0.38943,0.665006,0.38943,0.334994,0.491207,0.29249,1.331432,0.617647
986,26365,41488,13256,54742,0.194947,0.388561,0.66543,0.388561,0.33457,0.49063,0.29165,1.332282,0.61809
987,26298,41555,13212,54786,0.1943,0.387573,0.665604,0.387573,0.334396,0.489889,0.290833,1.33263,0.618182
988,26256,41597,13173,54825,0.193726,0.386954,0.665906,0.386954,0.334094,0.489476,0.290237,1.333235,0.619048
989,26221,41632,13148,54850,0.193359,0.386438,0.666032,0.386438,0.333968,0.489097,0.289795,1.333487,0.619343
990,26112,41741,13083,54915,0.192403,0.384832,0.666207,0.384832,0.333793,0.487856,0.288515,1.333839,0.619565
991,25990,41863,12998,55000,0.191153,0.383034,0.666615,0.383034,0.333385,0.486517,0.286991,1.334655,0.619718
992,25975,41878,12979,55019,0.190873,0.382813,0.666812,0.382813,0.333188,0.486391,0.286741,1.335049,0.619883
993,25931,41922,12939,55059,0.190285,0.382164,0.667121,0.382164,0.332879,0.48595,0.286122,1.335668,0.62069
994,25885,41968,12903,55095,0.189756,0.381486,0.667346,0.381486,0.332654,0.485461,0.285519,1.336117,0.620939
995,25851,42002,12876,55122,0.189359,0.380985,0.667519,0.380985,0.332481,0.4851,0.28507,1.336464,0.621359
996,25810,42043,12845,55153,0.188903,0.380381,0.667701,0.380381,0.332299,0.484658,0.28454,1.33683,0.621622
997,25781,42072,12797,55201,0.188197,0.379954,0.668282,0.379954,0.331718,0.484464,0.283973,1.337993,0.622222
998,25775,42078,12783,55215,0.187991,0.379865,0.668473,0.379865,0.331527,0.484442,0.283826,1.338375,0.622449
999,25748,42105,12765,55233,0.187726,0.379467,0.668553,0.379467,0.331447,0.48414,0.283494,1.338536,0.622642
1000,25732,42121,12763,55235,0.187697,0.379232,0.66845,0.379232,0.33155,0.483921,0.283362,1.338329,0.622857
1001,25695,42158,12730,55268,0.187211,0.378686,0.668705,0.378686,0.331295,0.483543,0.282847,1.33884,0.622951
1002,25675,42178,12723,55275,0.187108,0.378392,0.668655,0.378392,0.331345,0.48329,0.282648,1.338738,0.624254
1003,25615,42238,12691,55307,0.186638,0.377507,0.668694,0.377507,0.331306,0.482578,0.281971,1.338817,0.625
1004,25596,42257,12674,55324,0.186388,0.377227,0.668827,0.377227,0.331173,0.482384,0.281706,1.339083,0.625
1005,25481,42372,12575,55423,0.184932,0.375532,0.669566,0.375532,0.330434,0.481187,0.28013,1.340563,0.626866
1006,25457,42396,12555,55443,0.184638,0.375179,0.66971,0.375179,0.33029,0.480933,0.279807,1.34085,0.627451
1007,25420,42433,12522,55476,0.184152,0.374633,0.66997,0.374633,0.33003,0.480552,0.279291,1.341372,0.627907
1008,25412,42441,12513,55485,0.18402,0.374515,0.670059,0.374515,0.329941,0.480478,0.279166,1.341551,0.628099
1009,25378,42475,12483,55515,0.183579,0.374014,0.670294,0.374014,0.329706,0.480126,0.278695,1.34202,0.628319
1010,25375,42478,12467,55531,0.183344,0.37397,0.670551,0.37397,0.329449,0.480155,0.278555,1.342535,0.628571
1011,25305,42548,12405,55593,0.182432,0.372939,0.671042,0.372939,0.328958,0.479429,0.277584,1.343518,0.629032
1012,25292,42561,12389,55609,0.182197,0.372747,0.671214,0.372747,0.328786,0.479315,0.27737,1.343862,0.62931
1013,25223,42630,12345,55653,0.181549,0.37173,0.671396,0.37173,0.328604,0.478519,0.276538,1.344226,0.629412
1014,25210,42643,12333,55665,0.181373,0.371538,0.671497,0.371538,0.328503,0.478386,0.276354,1.344428,0.62963
1015,25170,42683,12292,55706,0.18077,0.370949,0.671881,0.370949,0.328119,0.477995,0.275758,1.345197,0.630435
1016,25112,42741,12238,55760,0.179976,0.370094,0.672343,0.370094,0.327657,0.477401,0.274934,1.346122,0.630769
1017,25091,42762,12224,55774,0.17977,0.369785,0.672411,0.369785,0.327589,0.47716,0.274676,1.346258,0.631148
1018,25079,42774,12213,55785,0.179608,0.369608,0.672503,0.369608,0.327497,0.477036,0.274507,1.346444,0.631579
1019,24981,42872,12141,55857,0.178549,0.368164,0.672943,0.368164,0.327057,0.475942,0.273255,1.347325,0.632353
1020,24938,42915,12126,55872,0.178329,0.36753,0.672836,0.36753,0.327164,0.475385,0.272828,1.34711,0.632653
1021,24919,42934,12114,55884,0.178152,0.36725,0.672886,0.36725,0.327114,0.475164,0.2726,1.347211,0.632911
1022,24913,42940,12093,55905,0.177843,0.367161,0.673215,0.367161,0.326785,0.475171,0.272401,1.347869,0.633333
1023,24789,43064,12003,55995,0.17652,0.365334,0.673761,0.365334,0.326239,0.473773,0.270826,1.348961,0.633803
1024,24772,43081,11993,56005,0.176373,0.365083,0.673793,0.365083,0.326207,0.473571,0.270627,1.349026,0.634146
1025,24699,43154,11952,56046,0.17577,0.364007,0.673897,0.364007,0.326103,0.47269,0.269788,1.349234,0.634796
1026,24325,43528,11688,56310,0.171887,0.358496,0.675451,0.358496,0.324549,0.468392,0.265092,1.352344,0.636364
1027,24101,43752,11486,56512,0.168917,0.355194,0.677242,0.355194,0.322758,0.46599,0.261956,1.355931,0.63662
1028,24032,43821,11429,56569,0.168078,0.354177,0.677702,0.354177,0.322298,0.465223,0.261029,1.356853,0.637931
1029,24002,43851,11392,56606,0.167534,0.353735,0.678138,0.353735,0.321862,0.464943,0.260535,1.357724,0.638298
1030,23987,43866,11379,56619,0.167343,0.353514,0.67825,0.353514,0.32175,0.464779,0.260329,1.35795,0.638889
1031,23946,43907,11356,56642,0.167005,0.35291,0.678319,0.35291,0.321681,0.464272,0.259858,1.358087,0.63964
1032,23913,43940,11336,56662,0.166711,0.352424,0.678402,0.352424,0.321598,0.463871,0.259468,1.358254,0.64
1033,23880,43973,11322,56676,0.166505,0.351937,0.678371,0.351937,0.321629,0.463442,0.259122,1.358191,0.640351
1034,23842,44011,11299,56699,0.166167,0.351377,0.678467,0.351377,0.321533,0.462978,0.258673,1.358383,0.640684
1035,23727,44126,11235,56763,0.165225,0.349682,0.678651,0.349682,0.321349,0.461547,0.257355,1.358752,0.641026
1036,23692,44161,11212,56786,0.164887,0.349167,0.678776,0.349167,0.321224,0.461127,0.256929,1.359003,0.641304
1037,23638,44215,11163,56835,0.164167,0.348371,0.679233,0.348371,0.320767,0.460537,0.25617,1.359918,0.641509
1038,23620,44233,11152,56846,0.164005,0.348105,0.679282,0.348105,0.320718,0.460317,0.255957,1.360016,0.641975
1039,23592,44261,11136,56862,0.16377,0.347693,0.679337,0.347693,0.320663,0.459968,0.255633,1.360125,0.642857
1040,23521,44332,11088,56910,0.163064,0.346646,0.679621,0.346646,0.320379,0.459117,0.254757,1.360694,0.643777
1041,23441,44412,11051,56947,0.162519,0.345467,0.679607,0.345467,0.320393,0.458078,0.253896,1.360666,0.643785
1042,23387,44466,11020,56978,0.162064,0.344672,0.679716,0.344672,0.320284,0.457403,0.25327,1.360885,0.643836
1043,23331,44522,10987,57011,0.161578,0.343846,0.679847,0.343846,0.320153,0.456705,0.252615,1.361147,0.644068
1044,23307,44546,10978,57020,0.161446,0.343493,0.679802,0.343493,0.320198,0.456383,0.252372,1.361056,0.644444
1045,23254,44599,10946,57052,0.160975,0.342711,0.679942,0.342711,0.320058,0.455724,0.251746,1.361336,0.645161
1046,23234,44619,10940,57058,0.160887,0.342417,0.679874,0.342417,0.320126,0.455448,0.251555,1.3612,0.645503
1047,23171,44682,10902,57096,0.160328,0.341488,0.68004,0.341488,0.31996,0.454663,0.250812,1.361533,0.645833
1048,23152,44701,10888,57110,0.160122,0.341208,0.680141,0.341208,0.319859,0.454437,0.250569,1.361735,0.646154
1049,23134,44719,10871,57127,0.159872,0.340943,0.680312,0.340943,0.319688,0.45424,0.250311,1.362077,0.647059
1050,23069,44784,10795,57203,0.158755,0.339985,0.681225,0.339985,0.318775,0.453592,0.249273,1.363906,0.648649
1051,22987,44866,10746,57252,0.158034,0.338776,0.68144,0.338776,0.31856,0.452562,0.248309,1.364335,0.649351
1052,22922,44931,10715,57283,0.157578,0.337819,0.681452,0.337819,0.318548,0.45171,0.247602,1.36436,0.650794
1053,22903,44950,10707,57291,0.157461,0.337539,0.681434,0.337539,0.318566,0.451455,0.247403,1.364324,0.651786
1054,22893,44960,10695,57303,0.157284,0.337391,0.681583,0.337391,0.318417,0.451356,0.247241,1.364622,0.651786
1055,22861,44992,10684,57314,0.157122,0.33692,0.681502,0.33692,0.318498,0.450916,0.246925,1.364461,0.652235
1056,22787,45066,10632,57366,0.156358,0.335829,0.681858,0.335829,0.318142,0.450016,0.245997,1.365172,0.652778
1057,22764,45089,10613,57385,0.156078,0.33549,0.682027,0.33549,0.317973,0.449748,0.245688,1.365511,0.652893
1058,22739,45114,10589,57409,0.155725,0.335122,0.682279,0.335122,0.317721,0.449472,0.245328,1.366016,0.653061
1059,22684,45169,10547,57451,0.155108,0.334311,0.682616,0.334311,0.317384,0.448815,0.244614,1.36669,0.653846
1060,22663,45190,10520,57478,0.15471,0.334001,0.68297,0.334001,0.31703,0.448612,0.24426,1.3674,0.654545
1061,22646,45207,10515,57483,0.154637,0.333751,0.682911,0.333751,0.317089,0.448373,0.244098,1.367281,0.654804
1062,22556,45297,10457,57541,0.153784,0.332425,0.683246,0.332425,0.316754,0.447247,0.243009,1.367952,0.654867
1063,22518,45335,10429,57569,0.153372,0.331864,0.683461,0.331864,0.316539,0.446786,0.242523,1.368383,0.655052
1064,22481,45372,10417,57581,0.153196,0.331319,0.683355,0.331319,0.316645,0.446269,0.242162,1.36817,0.655172
1065,22415,45438,10365,57633,0.152431,0.330346,0.683801,0.330346,0.316199,0.44548,0.241294,1.369063,0.655556
1066,22388,45465,10346,57652,0.152152,0.329949,0.683937,0.329949,0.316063,0.445147,0.240955,1.369336,0.65625
1067,22325,45528,10311,57687,0.151637,0.32902,0.684061,0.32902,0.315939,0.444327,0.240234,1.369583,0.656891
1068,22224,45629,10258,57740,0.150857,0.327532,0.684194,0.327532,0.315806,0.442996,0.2391,1.369851,0.657143
1069,22175,45678,10224,57774,0.150357,0.326809,0.684435,0.326809,0.315565,0.442385,0.238489,1.370332,0.657505
1070,22121,45732,10183,57815,0.149754,0.326014,0.684776,0.326014,0.315224,0.441726,0.23779,1.371015,0.657594
1071,21865,45988,10033,57965,0.147548,0.322241,0.685466,0.322241,0.314534,0.438392,0.234801,1.372397,0.657795
1072,21806,46047,9993,58005,0.14696,0.321371,0.685745,0.321371,0.314255,0.437643,0.234073,1.372955,0.657895
1073,21778,46075,9980,58018,0.146769,0.320959,0.685748,0.320959,0.314252,0.437261,0.233771,1.372962,0.65812
1074,21743,46110,9948,58050,0.146298,0.320443,0.686094,0.320443,0.313906,0.436852,0.233278,1.373654,0.658537
1075,21711,46142,9926,58072,0.145975,0.319971,0.686253,0.319971,0.313747,0.436446,0.23288,1.373973,0.658683
1076,21695,46158,9916,58082,0.145828,0.319735,0.686312,0.319735,0.313688,0.436238,0.232689,1.37409,0.658824
1077,21642,46211,9887,58111,0.145401,0.318954,0.686416,0.318954,0.313584,0.435532,0.232085,1.374298,0.659091
1078,21615,46238,9869,58129,0.145137,0.318556,0.686539,0.318556,0.313461,0.435185,0.231754,1.374546,0.659341
1079,21582,46271,9853,58145,0.144901,0.31807,0.68656,0.31807,0.31344,0.434735,0.231393,1.374586,0.659532
1080,21364,46489,9736,58262,0.143181,0.314857,0.686945,0.314857,0.313055,0.431801,0.228927,1.375359,0.659574
1081,21355,46498,9727,58271,0.143048,0.314724,0.687054,0.314724,0.312946,0.431698,0.228795,1.375575,0.659615
1082,21261,46592,9652,58346,0.141945,0.313339,0.687769,0.313339,0.312231,0.430533,0.227551,1.377008,0.66
1083,21237,46616,9633,58365,0.141666,0.312985,0.687949,0.312985,0.312051,0.430234,0.227234,1.377369,0.660714
1084,21205,46648,9600,58398,0.141181,0.312514,0.688362,0.312514,0.311638,0.429869,0.226756,1.378196,0.661538
1085,21183,46670,9587,58411,0.140989,0.31219,0.68843,0.31219,0.31157,0.429575,0.226498,1.378332,0.661765
1086,21165,46688,9575,58423,0.140813,0.311924,0.688517,0.311924,0.311483,0.429341,0.226277,1.378505,0.661871
1087,21122,46731,9552,58446,0.140475,0.311291,0.688596,0.311291,0.311404,0.428756,0.225791,1.378664,0.662304
1088,21097,46756,9529,58469,0.140136,0.310922,0.688859,0.310922,0.311141,0.428457,0.225438,1.37919,0.6625
1089,21076,46777,9513,58485,0.139901,0.310613,0.689006,0.310613,0.310994,0.428191,0.225166,1.379484,0.662921
1090,21060,46793,9495,58503,0.139636,0.310377,0.689249,0.310377,0.310751,0.428014,0.224916,1.379971,0.663265
1091,21000,46853,9456,58542,0.139063,0.309493,0.689519,0.309493,0.310481,0.427224,0.224187,1.380512,0.663793
1092,20991,46862,9444,58554,0.138886,0.30936,0.689699,0.30936,0.310301,0.427133,0.224032,1.380873,0.664122
1093,20958,46895,9408,58590,0.138357,0.308874,0.69018,0.308874,0.30982,0.426761,0.223524,1.381835,0.664234
1094,20915,46938,9368,58630,0.137769,0.30824,0.690652,0.30824,0.309348,0.426245,0.222913,1.382779,0.665385
1095,20883,46970,9352,58646,0.137533,0.307768,0.69069,0.307768,0.30931,0.425801,0.22256,1.382855,0.666096
1096,20808,47045,9317,58681,0.137019,0.306663,0.690722,0.306663,0.309278,0.424748,0.22175,1.38292,0.666667
1097,20255,47598,8912,59086,0.131063,0.298513,0.694449,0.298513,0.305551,0.417543,0.214698,1.390382,0.66724
1098,20164,47689,8842,59156,0.130033,0.297172,0.695167,0.297172,0.304833,0.416358,0.213513,1.391819,0.669421
1099,20120,47733,8817,59181,0.129666,0.296523,0.695304,0.296523,0.304696,0.415745,0.213005,1.392093,0.669492
1100,20093,47760,8798,59200,0.129386,0.296125,0.695476,0.296125,0.304524,0.415385,0.212667,1.392438,0.669492
1101,20042,47811,8762,59236,0.128857,0.295374,0.695806,0.295374,0.304194,0.414704,0.212026,1.393099,0.67
1102,20014,47839,8745,59253,0.128607,0.294961,0.695921,0.294961,0.304079,0.414317,0.211695,1.39333,0.670588
1103,19986,47867,8733,59265,0.12843,0.294549,0.695916,0.294549,0.304084,0.413909,0.211401,1.393318,0.670886
1104,19959,47894,8714,59284,0.128151,0.294151,0.69609,0.294151,0.30391,0.413547,0.211062,1.393668,0.671233
1105,19895,47958,8683,59315,0.127695,0.293207,0.696165,0.293207,0.303835,0.412627,0.210363,1.393817,0.671429
1106,19849,48004,8654,59344,0.127268,0.292529,0.696383,0.292529,0.303617,0.411993,0.209811,1.394254,0.672414
1107,19833,48020,8649,59349,0.127195,0.292294,0.696335,0.292294,0.303665,0.411751,0.209656,1.394157,0.672828
1108,19780,48073,8608,59390,0.126592,0.291513,0.696773,0.291513,0.303227,0.411051,0.208964,1.395036,0.673077
1109,19755,48098,8595,59403,0.126401,0.291144,0.696825,0.291144,0.303175,0.410694,0.208685,1.39514,0.673469
1110,19731,48122,8572,59426,0.126063,0.29079,0.697135,0.29079,0.302865,0.410396,0.208339,1.395759,0.673913
1111,19661,48192,8523,59475,0.125342,0.289759,0.697594,0.289759,0.302406,0.409446,0.207463,1.396679,0.674419
1112,19612,48241,8474,59524,0.124621,0.289037,0.698284,0.289037,0.301716,0.408843,0.206741,1.39806,0.674699
1113,19583,48270,8456,59542,0.124357,0.288609,0.69842,0.288609,0.30158,0.408439,0.206395,1.398333,0.675
1114,19574,48279,8448,59550,0.124239,0.288477,0.698523,0.288477,0.301477,0.408323,0.20627,1.398538,0.675325
1115,19549,48304,8423,59575,0.123871,0.288108,0.698877,0.288108,0.301123,0.408015,0.205902,1.399248,0.675676
1116,19515,48338,8384,59614,0.123298,0.287607,0.699487,0.287607,0.300513,0.407616,0.205365,1.40047,0.675806
1117,19447,48406,8348,59650,0.122768,0.286605,0.699658,0.286605,0.300342,0.406637,0.204599,1.400812,0.676471
1118,19398,48455,8309,59689,0.122195,0.285883,0.700112,0.285883,0.299888,0.405986,0.203951,1.40172,0.67655
1119,19347,48506,8279,59719,0.121754,0.285131,0.700319,0.285131,0.299681,0.405262,0.203355,1.402134,0.677072
1120,19252,48601,8219,59779,0.120871,0.283731,0.700812,0.283731,0.299188,0.403928,0.202214,1.403121,0.677165
1121,19217,48636,8197,59801,0.120548,0.283215,0.700992,0.283215,0.299008,0.403435,0.201795,1.403482,0.677419
1122,19162,48691,8160,59838,0.120004,0.282405,0.70134,0.282405,0.29866,0.402669,0.201117,1.404178,0.678571
1123,19150,48703,8145,59853,0.119783,0.282228,0.701594,0.282228,0.298406,0.402531,0.200919,1.404687,0.679245
1124,19112,48741,8134,59864,0.119621,0.281668,0.701461,0.281668,0.298539,0.401939,0.200558,1.404421,0.679487
1125,19048,48805,8114,59884,0.119327,0.280725,0.701274,0.280725,0.298726,0.400947,0.19994,1.404046,0.68
1126,18992,48861,8069,59929,0.118665,0.279899,0.701822,0.279899,0.298178,0.400194,0.199196,1.405143,0.680851
1127,18927,48926,8030,59968,0.118092,0.278941,0.702118,0.278941,0.297882,0.399262,0.198431,1.405737,0.681319
1128,18899,48954,8019,59979,0.11793,0.278529,0.702095,0.278529,0.297905,0.398835,0.198144,1.405691,0.681818
1129,18844,49009,7993,60005,0.117548,0.277718,0.702165,0.277718,0.297835,0.398015,0.197547,1.40583,0.682119
1130,18829,49024,7979,60019,0.117342,0.277497,0.702365,0.277497,0.297635,0.39782,0.197334,1.406231,0.682171
1131,18787,49066,7955,60043,0.116989,0.276878,0.702528,0.276878,0.297472,0.397209,0.196848,1.406557,0.682203
1132,18761,49092,7940,60058,0.116768,0.276495,0.702633,0.276495,0.297367,0.396831,0.196546,1.406767,0.682432
1133,18703,49150,7913,60085,0.116371,0.27564,0.702698,0.27564,0.297302,0.395961,0.195921,1.406897,0.682927
1134,18683,49170,7909,60089,0.116312,0.275345,0.70258,0.275345,0.29742,0.395638,0.195744,1.406661,0.683333
1135,18664,49189,7893,60105,0.116077,0.275065,0.70279,0.275065,0.29721,0.395382,0.195486,1.407082,0.683486
1136,18640,49213,7880,60118,0.115886,0.274712,0.702866,0.274712,0.297134,0.395028,0.195214,1.407234,0.683673
1137,18607,49246,7861,60137,0.115606,0.274225,0.703,0.274225,0.297,0.394546,0.194831,1.407502,0.683871
1138,18548,49305,7830,60168,0.11515,0.273356,0.703162,0.273356,0.296838,0.393671,0.194169,1.407826,0.684211
1139,18479,49374,7778,60220,0.114386,0.272339,0.703774,0.272339,0.296226,0.392711,0.193278,1.409052,0.684615
1140,18382,49471,7735,60263,0.113753,0.270909,0.703833,0.270909,0.296167,0.391231,0.192247,1.40917,0.684724
1141,18288,49565,7677,60321,0.1129,0.269524,0.704333,0.269524,0.295667,0.389861,0.191129,1.410171,0.684932
1142,18269,49584,7664,60334,0.112709,0.269244,0.704469,0.269244,0.295531,0.389589,0.190893,1.410444,0.685714
1143,18191,49662,7622,60376,0.112092,0.268094,0.704722,0.268094,0.295278,0.388423,0.19001,1.410951,0.685897
1144,18118,49735,7591,60407,0.111636,0.267018,0.704734,0.267018,0.295266,0.387294,0.189244,1.410973,0.686957
1145,18096,49757,7580,60418,0.111474,0.266694,0.704783,0.266694,0.295217,0.38696,0.189001,1.411071,0.6875
1146,18042,49811,7555,60443,0.111106,0.265898,0.704848,0.265898,0.295152,0.386132,0.18842,1.411203,0.687697
1147,18020,49833,7538,60460,0.110856,0.265574,0.705063,0.265574,0.294937,0.385822,0.188133,1.411633,0.688525
1148,17961,49892,7510,60488,0.110444,0.264705,0.705155,0.264705,0.294845,0.384917,0.187492,1.411817,0.688889
1149,17904,49949,7492,60506,0.11018,0.263865,0.704993,0.263865,0.295007,0.384004,0.18694,1.411492,0.689655
1150,17894,49959,7488,60510,0.110121,0.263717,0.704988,0.263717,0.295012,0.383847,0.186837,1.411482,0.690909
1151,17877,49976,7480,60518,0.110003,0.263467,0.705012,0.263467,0.294988,0.383585,0.186653,1.411531,0.690987
1152,17851,50002,7459,60539,0.109694,0.263083,0.705294,0.263083,0.294706,0.383221,0.186307,1.412096,0.691358
1153,17822,50031,7434,60564,0.109327,0.262656,0.705654,0.262656,0.294346,0.38282,0.18591,1.412816,0.692308
1154,17765,50088,7406,60592,0.108915,0.261816,0.705773,0.261816,0.294227,0.381944,0.185284,1.413053,0.693069
1155,17725,50128,7382,60616,0.108562,0.261226,0.705978,0.261226,0.294022,0.381347,0.184813,1.413465,0.693333
1156,17692,50161,7370,60628,0.108386,0.26074,0.705929,0.26074,0.294071,0.380821,0.184482,1.413367,0.693548
1157,17665,50188,7354,60644,0.10815,0.260342,0.706063,0.260342,0.293937,0.380416,0.184165,1.413636,0.693878
1158,17623,50230,7327,60671,0.107753,0.259723,0.706333,0.259723,0.293667,0.379794,0.183657,1.414175,0.694444
1159,17482,50371,7230,60768,0.106327,0.257645,0.70743,0.257645,0.29257,0.377724,0.181905,1.416371,0.694581
1160,17423,50430,7182,60816,0.105621,0.256776,0.708108,0.256776,0.291892,0.376885,0.181118,1.417729,0.694611
1161,17364,50489,7153,60845,0.105194,0.255906,0.708243,0.255906,0.291757,0.375966,0.18047,1.418,0.694915
1162,17340,50513,7146,60852,0.105091,0.255552,0.70816,0.255552,0.29184,0.375573,0.180242,1.417833,0.695122
1163,17312,50541,7126,60872,0.104797,0.25514,0.708405,0.25514,0.291595,0.375161,0.179888,1.418324,0.695313
1164,17297,50556,7119,60879,0.104694,0.254919,0.708429,0.254919,0.291571,0.374925,0.179726,1.418372,0.695545
1165,17246,50607,7090,60908,0.104268,0.254167,0.708662,0.254167,0.291338,0.374144,0.179137,1.418839,0.695652
1166,17209,50644,7071,60927,0.103988,0.253622,0.708773,0.253622,0.291227,0.373569,0.178725,1.41906,0.696203
1167,17184,50669,7055,60943,0.103753,0.253253,0.70894,0.253253,0.29106,0.373192,0.178423,1.419395,0.696429
1168,17083,50770,6991,61007,0.102812,0.251765,0.709604,0.251765,0.290396,0.371664,0.177209,1.420724,0.696498
1169,17063,50790,6977,61021,0.102606,0.25147,0.709775,0.25147,0.290225,0.371367,0.176959,1.421068,0.696629
1170,17040,50813,6966,61032,0.102444,0.251131,0.709823,0.251131,0.290177,0.371003,0.176708,1.421162,0.696833
1171,16974,50879,6933,61065,0.101959,0.250158,0.710001,0.250158,0.289999,0.369965,0.17598,1.42152,0.69697
1172,16919,50934,6904,61094,0.101532,0.249348,0.710196,0.249348,0.289804,0.369104,0.175361,1.42191,0.69708
1173,16816,51037,6862,61136,0.100915,0.24783,0.710195,0.24783,0.289805,0.367438,0.174294,1.421908,0.697674
1174,16749,51104,6820,61178,0.100297,0.246842,0.710637,0.246842,0.289363,0.366411,0.173492,1.422792,0.698324
1175,16724,51129,6802,61196,0.100032,0.246474,0.710873,0.246474,0.289127,0.366036,0.173175,1.423265,0.698343
1176,16620,51233,6733,61265,0.099018,0.244941,0.711686,0.244941,0.288314,0.36445,0.171902,1.424893,0.698413
1177,16589,51264,6722,61276,0.098856,0.244484,0.711638,0.244484,0.288362,0.363938,0.171592,1.424797,0.698651
1178,16513,51340,6678,61320,0.098209,0.243364,0.712043,0.243364,0.287957,0.362748,0.170709,1.425609,0.698745
1179,16495,51358,6663,61335,0.097988,0.243099,0.712281,0.243099,0.287719,0.362484,0.170466,1.426084,0.698795
1180,16474,51379,6653,61345,0.097841,0.24279,0.712328,0.24279,0.287672,0.362146,0.170238,1.426177,0.699029
1181,16447,51406,6644,61354,0.097709,0.242392,0.712269,0.242392,0.287731,0.361695,0.169973,1.42606,0.7
1182,16312,51541,6550,61448,0.096326,0.240402,0.713498,0.240402,0.286502,0.359632,0.168287,1.428521,0.701493
1183,16299,51554,6535,61463,0.096106,0.24021,0.713804,0.24021,0.286196,0.359456,0.168081,1.429133,0.701657
1184,16023,51830,6411,61587,0.094282,0.236143,0.714228,0.236143,0.285772,0.354935,0.165137,1.429983,0.701754
1185,15951,51902,6384,61614,0.093885,0.235082,0.714171,0.235082,0.285829,0.353728,0.164408,1.429867,0.702128
1186,15934,51919,6378,61620,0.093797,0.234831,0.714145,0.234831,0.285855,0.353441,0.164239,1.429816,0.702381
1187,15896,51957,6363,61635,0.093576,0.234271,0.714138,0.234271,0.285862,0.352805,0.163849,1.429802,0.702479
1188,15859,51994,6341,61657,0.093253,0.233726,0.714369,0.233726,0.285631,0.352215,0.163414,1.430265,0.702539
1189,15560,52293,6182,61816,0.090914,0.229319,0.715666,0.229319,0.284334,0.347341,0.160043,1.43286,0.702703
1190,15536,52317,6165,61833,0.090664,0.228966,0.715912,0.228966,0.284088,0.346964,0.159741,1.433353,0.70283
1191,15450,52403,6133,61865,0.090194,0.227698,0.715841,0.227698,0.284159,0.345498,0.158873,1.433212,0.70339
1192,15413,52440,6099,61899,0.089694,0.227153,0.716484,0.227153,0.283516,0.344945,0.15835,1.434499,0.703422
1193,15228,52625,6020,61978,0.088532,0.224426,0.716679,0.224426,0.283321,0.341814,0.156407,1.43489,0.703704
1194,15223,52630,6014,61984,0.088444,0.224353,0.716815,0.224353,0.283185,0.341744,0.156326,1.435162,0.704508
1195,15154,52699,5978,62020,0.087914,0.223336,0.717111,0.223336,0.282889,0.340597,0.155553,1.435755,0.704545
1196,15129,52724,5965,62033,0.087723,0.222967,0.717218,0.222967,0.282782,0.34018,0.155273,1.435969,0.705455
1197,15099,52754,5942,62056,0.087385,0.222525,0.717599,0.222525,0.282401,0.339708,0.154883,1.436731,0.705882
1198,14951,52902,5839,62159,0.08587,0.220344,0.719144,0.220344,0.280856,0.337331,0.153035,1.439824,0.706522
1199,14851,53002,5805,62193,0.08537,0.21887,0.718968,0.21887,0.281032,0.335582,0.152049,1.439472,0.706667
1200,14829,53024,5788,62210,0.08512,0.218546,0.719261,0.218546,0.280739,0.335232,0.151762,1.440059,0.706977
1201,14810,53043,5779,62219,0.084988,0.218266,0.719316,0.218266,0.280684,0.334909,0.151556,1.440169,0.707317
1202,14756,53097,5741,62257,0.084429,0.21747,0.71991,0.21747,0.28009,0.334035,0.150879,1.441359,0.707692
1203,14742,53111,5725,62273,0.084194,0.217264,0.720281,0.217264,0.279719,0.333832,0.150658,1.442102,0.708333
1204,14706,53147,5700,62298,0.083826,0.216733,0.72067,0.216733,0.27933,0.333246,0.150209,1.442881,0.708861
1205,14697,53156,5688,62310,0.08365,0.216601,0.720971,0.216601,0.279029,0.333122,0.150054,1.443483,0.709677
1206,14626,53227,5651,62347,0.083105,0.215554,0.72131,0.215554,0.27869,0.331919,0.149259,1.444161,0.710843
1207,14589,53264,5624,62374,0.082708,0.215009,0.721763,0.215009,0.278237,0.33132,0.148788,1.445069,0.711111
1208,14552,53301,5588,62410,0.082179,0.214464,0.722542,0.214464,0.277458,0.330754,0.148251,1.446628,0.711864
1209,14516,53337,5562,62436,0.081797,0.213933,0.72298,0.213933,0.27702,0.330168,0.147794,1.447506,0.712
1210,14475,53378,5543,62455,0.081517,0.213329,0.723099,0.213329,0.276901,0.32946,0.147353,1.447744,0.713043
1211,14445,53408,5530,62468,0.081326,0.212887,0.723154,0.212887,0.276846,0.328938,0.147036,1.447853,0.713178
1212,14392,53461,5507,62491,0.080988,0.212106,0.723252,0.212106,0.276748,0.328015,0.146477,1.44805,0.714286
1213,14100,53753,5317,62681,0.078193,0.207802,0.726168,0.207802,0.273832,0.323135,0.142929,1.453887,0.715686
1214,14063,53790,5301,62697,0.077958,0.207257,0.726245,0.207257,0.273755,0.322483,0.142539,1.454041,0.716049
1215,14014,53839,5257,62741,0.077311,0.206535,0.727207,0.206535,0.272793,0.321702,0.141854,1.455967,0.716102
1216,13924,53929,5224,62774,0.076826,0.205208,0.727178,0.205208,0.272822,0.320088,0.140949,1.45591,0.716578
1217,13868,53985,5202,62796,0.076502,0.204383,0.727216,0.204383,0.272784,0.319087,0.140374,1.455985,0.716981
1218,13845,54008,5191,62807,0.07634,0.204044,0.727306,0.204044,0.272694,0.318682,0.140124,1.456167,0.717105
1219,13789,54064,5169,62829,0.076017,0.203219,0.727345,0.203219,0.272655,0.317679,0.13955,1.456244,0.717391
1220,13728,54125,5143,62855,0.075635,0.20232,0.727465,0.20232,0.272535,0.316591,0.13891,1.456485,0.717557
1221,13687,54166,5120,62878,0.075296,0.201715,0.727761,0.201715,0.272239,0.315878,0.138438,1.457077,0.717949
1222,13646,54207,5098,62900,0.074973,0.201111,0.72802,0.201111,0.27198,0.315161,0.137975,1.457595,0.718367
1223,13625,54228,5086,62912,0.074796,0.200802,0.728181,0.200802,0.271819,0.314796,0.137732,1.457919,0.71875
1224,13594,54259,5072,62926,0.07459,0.200345,0.728276,0.200345,0.271724,0.314243,0.137401,1.458108,0.719512
1225,13573,54280,5060,62938,0.074414,0.200035,0.728439,0.200035,0.271561,0.313877,0.137158,1.458434,0.719626
1226,13535,54318,5050,62948,0.074267,0.199475,0.728275,0.199475,0.271725,0.313172,0.136804,1.458107,0.71978
1227,13507,54346,5030,62968,0.073973,0.199063,0.728651,0.199063,0.271349,0.312698,0.136451,1.458859,0.72
1228,13500,54353,5027,62971,0.073929,0.19896,0.728666,0.19896,0.271334,0.312572,0.136377,1.45889,0.72043
1229,13467,54386,5013,62985,0.073723,0.198473,0.728734,0.198473,0.271266,0.311978,0.136031,1.459025,0.721311
1230,13451,54402,5005,62993,0.073605,0.198237,0.728814,0.198237,0.271186,0.311694,0.135855,1.459186,0.721519
1231,13418,54435,4992,63006,0.073414,0.197751,0.728843,0.197751,0.271157,0.311095,0.135516,1.459244,0.722222
1232,13325,54528,4932,63066,0.072532,0.19638,0.729857,0.19638,0.270143,0.309488,0.13439,1.461274,0.722772
1233,13293,54560,4920,63078,0.072355,0.195909,0.729863,0.195909,0.270137,0.308902,0.134066,1.461286,0.723077
1234,13268,54585,4904,63094,0.07212,0.19554,0.730134,0.19554,0.269866,0.308468,0.133764,1.461829,0.723404
1235,13255,54598,4897,63101,0.072017,0.195349,0.730223,0.195349,0.269777,0.308238,0.133617,1.462006,0.724234
1236,13212,54641,4875,63123,0.071693,0.194715,0.730469,0.194715,0.269531,0.30747,0.133139,1.4625,0.725
1237,13179,54674,4853,63145,0.07137,0.194229,0.730867,0.194229,0.269133,0.306899,0.132734,1.463297,0.72549
1238,13150,54703,4835,63163,0.071105,0.193801,0.731165,0.193801,0.268835,0.306391,0.132388,1.463892,0.72619
1239,13087,54766,4811,63187,0.070752,0.192873,0.731199,0.192873,0.268801,0.305233,0.131747,1.463961,0.726563
1240,13045,54808,4791,63207,0.070458,0.192254,0.731386,0.192254,0.268614,0.304473,0.131291,1.464335,0.727273
1241,13024,54829,4778,63220,0.070267,0.191944,0.731603,0.191944,0.268397,0.304104,0.131041,1.46477,0.727273
1242,12855,54998,4678,63320,0.068796,0.189454,0.733189,0.189454,0.266811,0.301103,0.129061,1.467944,0.72807
1243,12803,55050,4659,63339,0.068517,0.188687,0.733192,0.188687,0.266808,0.300135,0.128538,1.467951,0.728814
1244,12783,55070,4638,63360,0.068208,0.188393,0.73377,0.188393,0.26623,0.29981,0.128236,1.469107,0.728972
1245,12746,55107,4623,63375,0.067987,0.187847,0.733836,0.187847,0.266164,0.299125,0.127853,1.46924,0.729167
1246,12658,55195,4598,63400,0.06762,0.18655,0.733542,0.18655,0.266458,0.297454,0.127022,1.468651,0.729412
1247,12640,55213,4586,63412,0.067443,0.186285,0.733775,0.186285,0.266225,0.297136,0.126801,1.469117,0.72973
1248,12545,55308,4534,63464,0.066678,0.184885,0.734528,0.184885,0.265472,0.295413,0.125719,1.470625,0.73
1249,12513,55340,4511,63487,0.06634,0.184413,0.735021,0.184413,0.264979,0.29485,0.125314,1.471613,0.730496
1250,12446,55407,4494,63504,0.06609,0.183426,0.734711,0.183426,0.265289,0.293562,0.124695,1.470992,0.730769
1251,12367,55486,4454,63544,0.065502,0.182262,0.735212,0.182262,0.264788,0.292109,0.123819,1.471995,0.731343
1252,12350,55503,4446,63552,0.065384,0.182011,0.735294,0.182011,0.264706,0.291793,0.123635,1.47216,0.731707
1253,12340,55513,4442,63556,0.065325,0.181864,0.735312,0.181864,0.264688,0.291605,0.123532,1.472195,0.732558
1254,12286,55567,4413,63585,0.064899,0.181068,0.735733,0.181068,0.264267,0.290614,0.122921,1.473038,0.732591
1255,12234,55619,4390,63608,0.064561,0.180302,0.735924,0.180302,0.264076,0.289641,0.122369,1.473421,0.732759
1256,12199,55654,4376,63622,0.064355,0.179786,0.735988,0.179786,0.264012,0.28898,0.122009,1.473549,0.732877
1257,12176,55677,4369,63629,0.064252,0.179447,0.735932,0.179447,0.264068,0.288538,0.121788,1.473437,0.733333
1258,12139,55714,4333,63665,0.063722,0.178901,0.736948,0.178901,0.263052,0.28791,0.12125,1.47547,0.73399
1259,12120,55733,4324,63674,0.06359,0.178621,0.737047,0.178621,0.262953,0.287555,0.121044,1.475669,0.734694
1260,12101,55752,4312,63686,0.063414,0.178341,0.737281,0.178341,0.262719,0.28721,0.120816,1.476138,0.735099
1261,12042,55811,4292,63706,0.06312,0.177472,0.737235,0.177472,0.262765,0.286077,0.120235,1.476046,0.735294
1262,12022,55831,4280,63718,0.062943,0.177177,0.737456,0.177177,0.262544,0.285711,0.119999,1.476487,0.735849
1263,11996,55857,4269,63729,0.062781,0.176794,0.737535,0.176794,0.262465,0.285218,0.119727,1.476645,0.736842
1264,11892,55961,4219,63779,0.062046,0.175261,0.738129,0.175261,0.261871,0.283264,0.118593,1.477836,0.737013
1265,11848,56005,4196,63802,0.061708,0.174613,0.738469,0.174613,0.261531,0.282442,0.1181,1.478517,0.737143
1266,11797,56056,4177,63821,0.061428,0.173861,0.738513,0.173861,0.261487,0.281461,0.117585,1.478603,0.737226
1267,11785,56068,4174,63824,0.061384,0.173684,0.738455,0.173684,0.261545,0.281225,0.117474,1.478488,0.738095
1268,11703,56150,4135,63863,0.060811,0.172476,0.738919,0.172476,0.261081,0.279672,0.116584,1.479417,0.738255
1269,11690,56163,4133,63865,0.060781,0.172284,0.738798,0.172284,0.261202,0.279411,0.116473,1.479175,0.739837
1270,11631,56222,4120,63878,0.06059,0.171415,0.738429,0.171415,0.261571,0.27824,0.115943,1.478437,0.740206
1271,11581,56272,4092,63906,0.060178,0.170678,0.738914,0.170678,0.261086,0.277303,0.115369,1.479407,0.740741
1272,11547,56306,4070,63928,0.059855,0.170177,0.739387,0.170177,0.260613,0.276674,0.114957,1.480353,0.741135
1273,11431,56422,4028,63970,0.059237,0.168467,0.73944,0.168467,0.26056,0.274414,0.113794,1.48046,0.741379
1274,11415,56438,4023,63975,0.059164,0.168231,0.739409,0.168231,0.260591,0.274099,0.113639,1.480399,0.741935
1275,11372,56481,4002,63996,0.058855,0.167598,0.73969,0.167598,0.26031,0.273277,0.113168,1.480961,0.742424
1276,11346,56507,3994,64004,0.058737,0.167214,0.739635,0.167214,0.260365,0.272763,0.112918,1.48085,0.742574
1277,11311,56542,3985,64013,0.058605,0.166699,0.739474,0.166699,0.260526,0.272066,0.112594,1.480529,0.742857
1278,11259,56594,3950,64048,0.05809,0.165932,0.740285,0.165932,0.259715,0.271099,0.111954,1.482153,0.74359
1279,11224,56629,3935,64063,0.057869,0.165416,0.740418,0.165416,0.259582,0.270419,0.111585,1.482419,0.744186
1280,11206,56647,3921,64077,0.057663,0.165151,0.740795,0.165151,0.259205,0.270089,0.11135,1.483172,0.745098
1281,11189,56664,3899,64099,0.05734,0.164901,0.741583,0.164901,0.258417,0.269806,0.111063,1.48475,0.745536
1282,11167,56686,3888,64110,0.057178,0.164576,0.741747,0.164576,0.258253,0.269383,0.11082,1.485079,0.746269
1283,11087,56766,3854,64144,0.056678,0.163397,0.742052,0.163397,0.257948,0.267821,0.109981,1.48569,0.746479
1284,11043,56810,3835,64163,0.056399,0.162749,0.742237,0.162749,0.257763,0.266962,0.109517,1.48606,0.746988
1285,10980,56873,3799,64199,0.055869,0.16182,0.742946,0.16182,0.257054,0.265757,0.108788,1.48748,0.747475
1286,10959,56894,3789,64209,0.055722,0.161511,0.743084,0.161511,0.256916,0.265348,0.10856,1.487756,0.747706
1287,10892,56961,3749,64249,0.055134,0.160523,0.743938,0.160523,0.256062,0.264068,0.107772,1.489466,0.747748
1288,10865,56988,3732,64266,0.054884,0.160126,0.744331,0.160126,0.255669,0.263554,0.107449,1.490253,0.747899
1289,10830,57023,3717,64281,0.054663,0.15961,0.744483,0.15961,0.255517,0.262864,0.107081,1.490558,0.748227
1290,10726,57127,3668,64330,0.053943,0.158077,0.745172,0.158077,0.254828,0.260824,0.105954,1.491936,0.75
1291,10396,57457,3520,64478,0.051766,0.153214,0.747054,0.153214,0.252946,0.254277,0.102436,1.495704,0.751152
1292,10338,57515,3496,64502,0.051413,0.152359,0.747289,0.152359,0.252711,0.253112,0.101832,1.496176,0.751185
1293,10290,57563,3471,64527,0.051046,0.151651,0.747765,0.151651,0.252235,0.252163,0.101295,1.497129,0.751969
1294,10264,57589,3457,64541,0.05084,0.151268,0.74805,0.151268,0.25195,0.251649,0.101,1.497699,0.752941
1295,10228,57625,3443,64555,0.050634,0.150738,0.748153,0.150738,0.251847,0.25092,0.100632,1.497905,0.753247
1296,10206,57647,3427,64571,0.050399,0.150413,0.748625,0.150413,0.251375,0.250497,0.100353,1.498849,0.753623
1297,10120,57733,3385,64613,0.049781,0.149146,0.749352,0.149146,0.250648,0.248777,0.09941,1.500306,0.754098
1298,10111,57742,3380,64618,0.049707,0.149013,0.749463,0.149013,0.250537,0.248599,0.099307,1.500527,0.754717
1299,10076,57777,3366,64632,0.049501,0.148497,0.749591,0.148497,0.250409,0.247887,0.098947,1.500784,0.754902
1300,10028,57825,3341,64657,0.049134,0.14779,0.750093,0.14779,0.249907,0.246928,0.098409,1.50179,0.755102
1301,10002,57851,3325,64673,0.048898,0.147407,0.750506,0.147407,0.249494,0.246415,0.0981,1.502617,0.755556
1302,9965,57888,3307,64691,0.048634,0.146862,0.750829,0.146862,0.249171,0.24567,0.097695,1.503262,0.755814
1303,9935,57918,3298,64700,0.048501,0.146419,0.750775,0.146419,0.249225,0.245048,0.097408,1.503154,0.756098
1304,9908,57945,3283,64715,0.048281,0.146022,0.751118,0.146022,0.248882,0.244509,0.097099,1.503841,0.756757
1305,9831,58022,3258,64740,0.047913,0.144887,0.751089,0.144887,0.248911,0.242915,0.096348,1.503782,0.757576
1306,9762,58091,3226,64772,0.047443,0.14387,0.751617,0.14387,0.248383,0.241511,0.095605,1.50484,0.758065
1307,9739,58114,3221,64777,0.047369,0.143531,0.751466,0.143531,0.248534,0.241026,0.095399,1.504538,0.758389
1308,9687,58166,3192,64806,0.046943,0.142765,0.752155,0.142765,0.247845,0.239979,0.094802,1.505917,0.758621
1309,9631,58222,3166,64832,0.04656,0.141939,0.752598,0.141939,0.247402,0.238834,0.094199,1.506805,0.759036
1310,9599,58254,3156,64842,0.046413,0.141468,0.752568,0.141468,0.247432,0.238165,0.09389,1.506743,0.759259
1311,9580,58273,3144,64854,0.046237,0.141188,0.752908,0.141188,0.247092,0.237785,0.093661,1.507425,0.759411
1312,9475,58378,3113,64885,0.045781,0.13964,0.752701,0.13964,0.247299,0.235576,0.09266,1.50701,0.76
1313,9426,58427,3080,64918,0.045295,0.138918,0.753718,0.138918,0.246282,0.234597,0.092057,1.509047,0.76
1314,9413,58440,3075,64923,0.045222,0.138726,0.753764,0.138726,0.246236,0.234326,0.091924,1.509138,0.760331
1315,9370,58483,3064,64934,0.04506,0.138093,0.753579,0.138093,0.246421,0.233413,0.091527,1.508768,0.76087
1316,9340,58513,3051,64947,0.044869,0.137651,0.753773,0.137651,0.246227,0.23279,0.09121,1.509157,0.761364
1317,9325,58528,3045,64953,0.044781,0.137429,0.75384,0.137429,0.24616,0.232477,0.091056,1.509291,0.761905
1318,9239,58614,3000,64998,0.044119,0.136162,0.754882,0.136162,0.245118,0.23071,0.090091,1.511377,0.7625
1319,9200,58653,2988,65010,0.043942,0.135587,0.754841,0.135587,0.245159,0.229882,0.089716,1.511295,0.763158
1320,9173,58680,2974,65024,0.043737,0.135189,0.755166,0.135189,0.244834,0.229325,0.089414,1.511946,0.763547
1321,9160,58693,2965,65033,0.043604,0.134998,0.755464,0.134998,0.244536,0.229063,0.089252,1.512542,0.76378
1322,9130,58723,2950,65048,0.043384,0.134556,0.755795,0.134556,0.244205,0.228441,0.088921,1.513205,0.764045
1323,9098,58755,2941,65057,0.043251,0.134084,0.755711,0.134084,0.244289,0.227757,0.088619,1.513036,0.764398
1324,9082,58771,2926,65072,0.043031,0.133848,0.756329,0.133848,0.243671,0.227445,0.088391,1.514274,0.764706
1325,9029,58824,2917,65081,0.042898,0.133067,0.755818,0.133067,0.244182,0.226294,0.087935,1.513251,0.76506
1326,8973,58880,2892,65106,0.042531,0.132242,0.756258,0.132242,0.243742,0.225119,0.087338,1.514132,0.765328
1327,8917,58936,2869,65129,0.042192,0.131416,0.756576,0.131416,0.243424,0.223936,0.086757,1.514768,0.765957
1328,8876,58977,2851,65147,0.041928,0.130812,0.756886,0.130812,0.243114,0.223071,0.086323,1.515389,0.766234
1329,8790,59063,2811,65187,0.041339,0.129545,0.757693,0.129545,0.242307,0.22126,0.085395,1.517006,0.766667
1330,8718,59135,2778,65220,0.040854,0.128484,0.758351,0.128484,0.241649,0.219738,0.084622,1.518322,0.767442
1331,8641,59212,2743,65255,0.040339,0.127349,0.759048,0.127349,0.240952,0.218105,0.083798,1.519718,0.767677
1332,8607,59246,2731,65267,0.040163,0.126848,0.759129,0.126848,0.240871,0.217373,0.083459,1.519879,0.767742
1333,8587,59266,2723,65275,0.040045,0.126553,0.75924,0.126553,0.24076,0.216945,0.083253,1.520102,0.767857
1334,8565,59288,2711,65287,0.039869,0.126229,0.759578,0.126229,0.240422,0.216482,0.083003,1.520779,0.769231
1335,8442,59411,2670,65328,0.039266,0.124416,0.759719,0.124416,0.240281,0.213816,0.081795,1.521062,0.769841
1336,8394,59459,2654,65344,0.039031,0.123709,0.759776,0.123709,0.240224,0.212773,0.081324,1.521175,0.77027
1337,8338,59515,2633,65365,0.038722,0.122883,0.760004,0.122883,0.239996,0.21156,0.080758,1.521631,0.770335
1338,8307,59546,2624,65374,0.038589,0.122426,0.759949,0.122426,0.240051,0.21088,0.080463,1.521522,0.770492
1339,8289,59564,2618,65380,0.038501,0.122161,0.759971,0.122161,0.240029,0.210488,0.080286,1.521565,0.770833
1340,8261,59592,2609,65389,0.038369,0.121748,0.759982,0.121748,0.240018,0.209875,0.080014,1.521587,0.771429
1341,8128,59725,2549,65449,0.037486,0.119788,0.761263,0.119788,0.238737,0.207004,0.078593,1.524152,0.771739
1342,8089,59764,2540,65458,0.037354,0.119214,0.761031,0.119214,0.238969,0.206136,0.07824,1.523689,0.772277
1343,8051,59802,2523,65475,0.037104,0.118654,0.761396,0.118654,0.238604,0.205312,0.077835,1.524419,0.772727
1344,7973,59880,2485,65513,0.036545,0.117504,0.762383,0.117504,0.237617,0.203624,0.076981,1.526395,0.773585
1345,7935,59918,2479,65519,0.036457,0.116944,0.761955,0.116944,0.238045,0.202767,0.076658,1.525538,0.773973
1346,7883,59970,2457,65541,0.036133,0.116178,0.762379,0.116178,0.237621,0.201629,0.076113,1.526387,0.774194
1347,7770,60083,2383,65615,0.035045,0.114512,0.765291,0.114512,0.234709,0.199215,0.074736,1.532217,0.774487
1348,7709,60144,2361,65637,0.034722,0.113613,0.765541,0.113613,0.234459,0.197862,0.074125,1.532718,0.774648
1349,7694,60159,2352,65646,0.034589,0.113392,0.765877,0.113392,0.234123,0.197538,0.073949,1.533391,0.77551
1350,7672,60181,2348,65650,0.03453,0.113068,0.765669,0.113068,0.234331,0.197039,0.073757,1.532974,0.776119
1351,7654,60199,2342,65656,0.034442,0.112803,0.765706,0.112803,0.234294,0.196637,0.073581,1.533049,0.776596
1352,7623,60230,2331,65667,0.03428,0.112346,0.765823,0.112346,0.234177,0.195946,0.073271,1.533282,0.777027
1353,7574,60279,2304,65694,0.033883,0.111624,0.766754,0.111624,0.233246,0.194877,0.072712,1.535147,0.777778
1354,7511,60342,2272,65726,0.033413,0.110695,0.76776,0.110695,0.23224,0.193493,0.072013,1.537161,0.778689
1355,7500,60353,2267,65731,0.033339,0.110533,0.767892,0.110533,0.232108,0.193249,0.071895,1.537425,0.778947
1356,7480,60373,2264,65734,0.033295,0.110238,0.767652,0.110238,0.232348,0.192791,0.071726,1.536944,0.779661
1357,7442,60411,2250,65748,0.033089,0.109678,0.76785,0.109678,0.23215,0.19194,0.071343,1.53734,0.78
1358,7406,60447,2231,65767,0.03281,0.109148,0.768496,0.109148,0.231504,0.191147,0.070938,1.538635,0.780488
1359,7380,60473,2214,65784,0.03256,0.108765,0.769231,0.108765,0.230769,0.190582,0.070621,1.540105,0.78125
1360,7375,60478,2211,65787,0.032516,0.108691,0.769351,0.108691,0.230649,0.190473,0.070563,1.540346,0.781818
1361,7336,60517,2187,65811,0.032163,0.108116,0.770345,0.108116,0.229655,0.18962,0.070099,1.542337,0.782051
1362,7302,60551,2179,65819,0.032045,0.107615,0.770172,0.107615,0.229828,0.188843,0.06979,1.54199,0.782609
1363,7271,60582,2174,65824,0.031972,0.107158,0.769825,0.107158,0.230175,0.188129,0.069525,1.541296,0.783019
1364,7243,60610,2161,65837,0.03178,0.106745,0.770204,0.106745,0.229796,0.187504,0.069223,1.542054,0.783333
1365,7220,60633,2149,65849,0.031604,0.106406,0.770627,0.106406,0.229373,0.186993,0.068965,1.5429,0.783784
1366,7182,60671,2133,65865,0.031369,0.105846,0.771014,0.105846,0.228986,0.186139,0.068568,1.543677,0.784314
1367,7162,60691,2124,65874,0.031236,0.105552,0.771269,0.105552,0.228731,0.185691,0.068354,1.544185,0.784689
1368,7142,60711,2109,65889,0.031016,0.105257,0.772025,0.105257,0.227975,0.185256,0.068097,1.545699,0.784722
1369,7080,60773,2095,65903,0.03081,0.104343,0.771662,0.104343,0.228338,0.183829,0.067537,1.544973,0.78492
1370,6982,60871,2068,65930,0.030413,0.102899,0.771492,0.102899,0.228508,0.181579,0.066617,1.544632,0.785714
1371,6960,60893,2061,65937,0.03031,0.102575,0.771533,0.102575,0.228467,0.181076,0.066404,1.544715,0.786408
1372,6911,60942,2038,65960,0.029971,0.101853,0.772265,0.101853,0.227735,0.179969,0.065874,1.54618,0.786667
1373,6839,61014,2012,65986,0.029589,0.100791,0.772681,0.100791,0.227319,0.178322,0.065152,1.547013,0.786885
1374,6768,61085,1986,66012,0.029207,0.099745,0.773132,0.099745,0.226868,0.176694,0.064438,1.547917,0.786982
1375,6644,61209,1928,66070,0.028354,0.097918,0.775082,0.097918,0.224918,0.17387,0.063099,1.55182,0.787234
1376,6605,61248,1913,66085,0.028133,0.097343,0.775417,0.097343,0.224583,0.172971,0.062701,1.552491,0.787879
1377,6589,61264,1909,66089,0.028074,0.097107,0.775359,0.097107,0.224641,0.172598,0.062554,1.552375,0.788462
1378,6546,61307,1896,66102,0.027883,0.096473,0.775409,0.096473,0.224591,0.171597,0.062142,1.552474,0.788732
1379,6498,61355,1871,66127,0.027516,0.095766,0.776437,0.095766,0.223563,0.170502,0.061604,1.554533,0.789474
1380,6443,61410,1842,66156,0.027089,0.094955,0.77767,0.094955,0.22233,0.169245,0.060986,1.557003,0.789916
1381,6397,61456,1832,66166,0.026942,0.094277,0.777373,0.094277,0.222627,0.168161,0.060574,1.556407,0.790123
1382,6361,61492,1824,66174,0.026824,0.093747,0.777153,0.093747,0.222847,0.167311,0.06025,1.555967,0.790698
1383,6304,61549,1811,66187,0.026633,0.092907,0.776833,0.092907,0.223167,0.165965,0.059735,1.555326,0.791209
1384,6281,61572,1800,66198,0.026471,0.092568,0.777255,0.092568,0.222745,0.165433,0.059484,1.556172,0.791667
1385,6247,61606,1795,66203,0.026398,0.092067,0.776797,0.092067,0.223203,0.164622,0.059197,1.555254,0.792079
1386,6226,61627,1789,66209,0.02631,0.091757,0.776794,0.091757,0.223206,0.164127,0.058998,1.555247,0.792683
1387,6196,61657,1776,66222,0.026118,0.091315,0.77722,0.091315,0.22278,0.163429,0.058682,1.556101,0.793103
1388,6125,61728,1747,66251,0.025692,0.090269,0.778074,0.090269,0.221926,0.16177,0.057946,1.557811,0.794118
1389,6056,61797,1715,66283,0.025221,0.089252,0.779308,0.089252,0.220692,0.160161,0.057202,1.560281,0.794872
1390,6047,61806,1707,66291,0.025104,0.089119,0.779856,0.089119,0.220144,0.159959,0.057077,1.561378,0.795181
1391,6023,61830,1699,66299,0.024986,0.088765,0.779979,0.088765,0.220021,0.159391,0.056842,1.561625,0.795455
1392,5973,61880,1676,66322,0.024648,0.088029,0.780886,0.088029,0.219114,0.158221,0.056304,1.563442,0.795918
1393,5941,61912,1657,66341,0.024368,0.087557,0.781916,0.087557,0.218084,0.15748,0.055929,1.565504,0.798658
1394,5921,61932,1642,66356,0.024148,0.087262,0.78289,0.087262,0.21711,0.157022,0.055671,1.567454,0.8
1395,5634,62219,1531,66467,0.022515,0.083032,0.786322,0.083032,0.213678,0.150204,0.052742,1.574325,0.802632
1396,5586,62267,1521,66477,0.022368,0.082325,0.785986,0.082325,0.214014,0.149039,0.052315,1.573651,0.802817
1397,5530,62323,1499,66499,0.022045,0.0815,0.786741,0.0815,0.213259,0.147699,0.051741,1.575163,0.803191
1398,5441,62412,1471,66527,0.021633,0.080188,0.787182,0.080188,0.212818,0.145549,0.050879,1.576046,0.803279
1399,5415,62438,1468,66530,0.021589,0.079805,0.786721,0.079805,0.213279,0.14491,0.050666,1.575123,0.803571
1400,5395,62458,1464,66534,0.02153,0.07951,0.786558,0.07951,0.213442,0.144421,0.050489,1.574796,0.804348
1401,5381,62472,1459,66539,0.021457,0.079304,0.786696,0.079304,0.213304,0.144083,0.050349,1.575073,0.805556
1402,5359,62494,1448,66550,0.021295,0.07898,0.787278,0.07898,0.212722,0.143557,0.050106,1.576238,0.805882
1403,5340,62513,1434,66564,0.021089,0.0787,0.788308,0.0787,0.211692,0.143112,0.049863,1.578301,0.806452
1404,5300,62553,1413,66585,0.02078,0.07811,0.789513,0.07811,0.210487,0.142156,0.049414,1.580713,0.806867
1405,5273,62580,1408,66590,0.020706,0.077712,0.789253,0.077712,0.210747,0.141492,0.049179,1.580193,0.807018
1406,5250,62603,1404,66594,0.020648,0.077373,0.788999,0.077373,0.211001,0.140926,0.04898,1.579684,0.807339
1407,5229,62624,1383,66615,0.020339,0.077064,0.790835,0.077064,0.209165,0.140442,0.048671,1.58336,0.807692
1408,5215,62638,1383,66615,0.020339,0.076857,0.790391,0.076857,0.209609,0.140092,0.048568,1.582471,0.808219
1409,5163,62690,1366,66632,0.020089,0.076091,0.79078,0.076091,0.20922,0.138824,0.04806,1.583249,0.808824
1410,5133,62720,1354,66644,0.019912,0.075649,0.791275,0.075649,0.208725,0.138095,0.047751,1.584241,0.809524
1411,5114,62739,1346,66652,0.019795,0.075369,0.791641,0.075369,0.208359,0.137634,0.047552,1.584973,0.809798
1412,5068,62785,1323,66675,0.019456,0.074691,0.79299,0.074691,0.20701,0.136523,0.047044,1.587675,0.810526
1413,5054,62799,1319,66679,0.019398,0.074485,0.793033,0.074485,0.206967,0.136179,0.046912,1.587761,0.810811
1414,5009,62844,1310,66688,0.019265,0.073821,0.792689,0.073821,0.207311,0.135064,0.046514,1.587071,0.811321
1415,4975,62878,1300,66698,0.019118,0.07332,0.792829,0.07332,0.207171,0.134227,0.04619,1.587352,0.8125
1416,4895,62958,1280,66718,0.018824,0.072141,0.792713,0.072141,0.207287,0.132247,0.045454,1.587119,0.813953
1417,4810,63043,1255,66743,0.018456,0.070889,0.793075,0.070889,0.206925,0.130144,0.044645,1.587845,0.814815
1418,4793,63060,1246,66752,0.018324,0.070638,0.793674,0.070638,0.206326,0.12973,0.044453,1.589045,0.815068
1419,4763,63090,1240,66758,0.018236,0.070196,0.793437,0.070196,0.206563,0.128981,0.044188,1.588569,0.815789
1420,4731,63122,1232,66766,0.018118,0.069724,0.793393,0.069724,0.206607,0.128184,0.043894,1.588481,0.816327
1421,4716,63137,1226,66772,0.01803,0.069503,0.793672,0.069503,0.206328,0.127814,0.043739,1.58904,0.816901
1422,4684,63169,1214,66784,0.017853,0.069032,0.794168,0.069032,0.205832,0.127022,0.043415,1.590032,0.818182
1423,4618,63235,1200,66798,0.017648,0.068059,0.793744,0.068059,0.206256,0.125368,0.042826,1.589183,0.818966
1424,4600,63253,1192,66806,0.01753,0.067794,0.794199,0.067794,0.205801,0.124924,0.042635,1.590095,0.819026
1425,4538,63315,1173,66825,0.017251,0.06688,0.794607,0.06688,0.205393,0.123376,0.042039,1.590912,0.82
1426,4514,63339,1167,66831,0.017162,0.066526,0.794578,0.066526,0.205422,0.122773,0.041818,1.590855,0.820359
1427,4500,63353,1162,66836,0.017089,0.06632,0.794772,0.06632,0.205228,0.122424,0.041678,1.591243,0.820513
1428,4469,63384,1151,66847,0.016927,0.065863,0.795196,0.065863,0.204804,0.12165,0.041369,1.592091,0.821053
1429,4417,63436,1143,66855,0.016809,0.065097,0.794424,0.065097,0.205576,0.120333,0.040927,1.590547,0.821429
1430,4389,63464,1129,66869,0.016603,0.064684,0.795397,0.064684,0.204603,0.119639,0.040618,1.592494,0.821918
1431,4324,63529,1115,66883,0.016398,0.063726,0.794999,0.063726,0.205001,0.117994,0.040037,1.591697,0.822222
1432,4311,63542,1113,66885,0.016368,0.063534,0.794801,0.063534,0.205199,0.117663,0.039926,1.5913,0.823529
1433,4299,63554,1109,66889,0.016309,0.063358,0.794933,0.063358,0.205067,0.117361,0.039808,1.591566,0.825
1434,4197,63656,1071,66927,0.01575,0.061854,0.796697,0.061854,0.203303,0.114796,0.038778,1.595097,0.825688
1435,4153,63700,1055,66943,0.015515,0.061206,0.797427,0.061206,0.202573,0.113686,0.038336,1.596558,0.826087
1436,4081,63772,1028,66970,0.015118,0.060145,0.798786,0.060145,0.201214,0.111866,0.037607,1.59928,0.826923
1437,4069,63784,1022,66976,0.01503,0.059968,0.799254,0.059968,0.200746,0.111565,0.037475,1.600215,0.827089
1438,4020,63833,1007,66991,0.014809,0.059246,0.799682,0.059246,0.200318,0.110318,0.037004,1.601072,0.82716
1439,3987,63866,996,67002,0.014647,0.058759,0.80012,0.058759,0.19988,0.109479,0.03668,1.601951,0.827586
1440,3915,63938,986,67012,0.0145,0.057698,0.798817,0.057698,0.201183,0.107623,0.036076,1.59934,0.827751
1441,3878,63975,973,67025,0.014309,0.057153,0.799423,0.057153,0.200577,0.106679,0.035708,1.600554,0.828283
1442,3835,64018,955,67043,0.014045,0.056519,0.800626,0.056519,0.199374,0.105585,0.035259,1.602964,0.828571
1443,3777,64076,934,67064,0.013736,0.055664,0.801741,0.055664,0.198259,0.104101,0.034678,1.605195,0.829268
1444,3721,64132,915,67083,0.013456,0.054839,0.802632,0.054839,0.197368,0.102664,0.034126,1.606978,0.829787
1445,3690,64163,897,67101,0.013192,0.054382,0.804447,0.054382,0.195553,0.101877,0.033765,1.610614,0.830769
1446,3669,64184,888,67110,0.013059,0.054073,0.805135,0.054073,0.194865,0.10134,0.033544,1.61199,0.831169
1447,3650,64203,872,67126,0.012824,0.053793,0.807165,0.053793,0.192835,0.100864,0.033286,1.616055,0.833333
1448,3464,64389,820,67178,0.012059,0.051052,0.80859,0.051052,0.19141,0.096039,0.031535,1.618908,0.834437
1449,3405,64448,800,67198,0.011765,0.050182,0.80975,0.050182,0.19025,0.094507,0.030953,1.621231,0.836364
1450,3386,64467,796,67202,0.011706,0.049902,0.80966,0.049902,0.19034,0.09401,0.030784,1.621051,0.837209
1451,3339,64514,782,67216,0.0115,0.049209,0.81024,0.049209,0.18976,0.092784,0.030335,1.622212,0.837838
1452,3288,64565,761,67237,0.011192,0.048458,0.812052,0.048458,0.187948,0.091458,0.029805,1.62584,0.838235
1453,3265,64588,752,67246,0.011059,0.048119,0.812796,0.048119,0.187204,0.090858,0.029569,1.627328,0.839286
1454,3237,64616,746,67252,0.010971,0.047706,0.812704,0.047706,0.187296,0.090122,0.029319,1.627145,0.84058
1455,3158,64695,733,67265,0.01078,0.046542,0.811617,0.046542,0.188383,0.088035,0.028642,1.624968,0.840909
1456,3140,64713,730,67268,0.010736,0.046277,0.81137,0.046277,0.18863,0.087559,0.028487,1.624473,0.840964
1457,3082,64771,717,67281,0.010544,0.045422,0.811266,0.045422,0.188734,0.086027,0.027964,1.624266,0.841176
1458,3060,64793,711,67287,0.010456,0.045097,0.811456,0.045097,0.188544,0.085446,0.027758,1.624646,0.842105
1459,3001,64852,692,67306,0.010177,0.044228,0.812618,0.044228,0.187382,0.08389,0.027184,1.626973,0.842857
1460,2970,64883,683,67315,0.010044,0.043771,0.81303,0.043771,0.18697,0.08307,0.02689,1.627798,0.84375
1461,2923,64930,663,67335,0.00975,0.043078,0.815114,0.043078,0.184886,0.081832,0.026397,1.631971,0.848485
1462,2863,64990,638,67360,0.009383,0.042194,0.817766,0.042194,0.182234,0.080248,0.025771,1.63728,0.85
1463,2852,65001,629,67369,0.00925,0.042032,0.819305,0.042032,0.180695,0.079962,0.025624,1.64036,0.850829
1464,2824,65029,618,67380,0.009089,0.041619,0.820453,0.041619,0.179547,0.07922,0.025337,1.64266,0.851064
1465,2809,65044,615,67383,0.009044,0.041398,0.820386,0.041398,0.179614,0.078819,0.025204,1.642524,0.851485
1466,2804,65049,604,67394,0.008883,0.041325,0.82277,0.041325,0.17723,0.078697,0.025086,1.647298,0.851852
1467,2792,65061,598,67400,0.008794,0.041148,0.823599,0.041148,0.176401,0.07838,0.024954,1.648958,0.852679
1468,2761,65092,589,67409,0.008662,0.040691,0.824179,0.040691,0.175821,0.077553,0.024659,1.650119,0.852941
1469,2745,65108,584,67414,0.008588,0.040455,0.824572,0.040455,0.175428,0.077126,0.024505,1.650906,0.853659
1470,2688,65165,563,67435,0.00828,0.039615,0.826823,0.039615,0.173177,0.075608,0.023931,1.655412,0.857143
1471,2634,65219,549,67449,0.008074,0.038819,0.827521,0.038819,0.172479,0.07416,0.02343,1.656811,0.859813
1472,2596,65257,544,67454,0.008,0.038259,0.826752,0.038259,0.173248,0.073134,0.023114,1.65527,0.86
1473,2580,65273,541,67457,0.007956,0.038023,0.826658,0.038023,0.173342,0.072703,0.022974,1.655083,0.860465
1474,2552,65301,531,67467,0.007809,0.037611,0.827765,0.037611,0.172235,0.071952,0.022694,1.657299,0.861111
1475,2519,65334,521,67477,0.007662,0.037124,0.828618,0.037124,0.171382,0.071065,0.022377,1.659008,0.861538
1476,2495,65358,515,67483,0.007574,0.036771,0.828904,0.036771,0.171096,0.070418,0.022157,1.659579,0.863636
1477,2386,65467,486,67512,0.007147,0.035164,0.83078,0.035164,0.16922,0.067473,0.021141,1.663335,0.863636
1478,2373,65480,481,67517,0.007074,0.034973,0.831465,0.034973,0.168535,0.067122,0.021008,1.664706,0.865169
1479,2359,65494,475,67523,0.006985,0.034766,0.832392,0.034766,0.167608,0.066745,0.020861,1.666564,0.866667
1480,2245,65608,443,67555,0.006515,0.033086,0.835193,0.033086,0.164807,0.063651,0.019786,1.672172,0.866995
1481,2214,65639,432,67566,0.006353,0.032629,0.836735,0.032629,0.163265,0.062809,0.019477,1.675257,0.867647
1482,2188,65665,421,67577,0.006191,0.032246,0.838635,0.032246,0.161365,0.062104,0.019205,1.679063,0.868852
1483,2171,65682,414,67584,0.006088,0.031996,0.839845,0.031996,0.160155,0.061643,0.019028,1.681485,0.869048
1484,2097,65756,391,67607,0.00575,0.030905,0.842846,0.030905,0.157154,0.059624,0.018314,1.687492,0.869565
1485,2092,65761,389,67609,0.005721,0.030831,0.843208,0.030831,0.156792,0.059488,0.018263,1.688219,0.87037
1486,2069,65784,381,67617,0.005603,0.030492,0.84449,0.030492,0.15551,0.05886,0.018034,1.690784,0.870968
1487,2043,65810,374,67624,0.0055,0.030109,0.845263,0.030109,0.154737,0.058147,0.017792,1.692332,0.87234
1488,2024,65829,370,67628,0.005441,0.029829,0.845447,0.029829,0.154553,0.057625,0.017622,1.692701,0.872727
1489,1990,65863,359,67639,0.00528,0.029328,0.847169,0.029328,0.152831,0.056694,0.017291,1.696148,0.873684
1490,1968,65885,355,67643,0.005221,0.029004,0.84718,0.029004,0.15282,0.056088,0.0171,1.696171,0.874627
1491,1921,65932,344,67654,0.005059,0.028311,0.848124,0.028311,0.151876,0.054793,0.016673,1.69806,0.875
1492,1837,66016,311,67687,0.004574,0.027073,0.855214,0.027073,0.144786,0.052485,0.015811,1.712256,0.876712
1493,1806,66047,305,67693,0.004485,0.026616,0.855519,0.026616,0.144481,0.051627,0.015539,1.712866,0.877551
1494,1779,66074,301,67697,0.004427,0.026218,0.855288,0.026218,0.144712,0.050877,0.015311,1.712405,0.878049
1495,1746,66107,301,67697,0.004427,0.025732,0.852956,0.025732,0.147044,0.049957,0.015068,1.707734,0.878788
1496,1714,66139,299,67699,0.004397,0.02526,0.851465,0.02526,0.148535,0.049065,0.014818,1.704751,0.87931
1497,1690,66163,296,67702,0.004353,0.024907,0.850957,0.024907,0.149043,0.048397,0.014619,1.703732,0.88
1498,1643,66210,288,67710,0.004235,0.024214,0.850854,0.024214,0.149146,0.047088,0.014214,1.703527,0.880342
1499,1601,66252,282,67716,0.004147,0.023595,0.850239,0.023595,0.149761,0.045916,0.013861,1.702295,0.882353
1500,1600,66253,281,67717,0.004132,0.02358,0.850611,0.02358,0.149389,0.045889,0.013846,1.70304,0.883721
1501,1588,66265,276,67722,0.004059,0.023404,0.851931,0.023404,0.148069,0.045556,0.013721,1.705683,0.884615
1502,1530,66323,258,67740,0.003794,0.022549,0.855705,0.022549,0.144295,0.04394,0.013161,1.713238,0.891892
1503,1509,66344,252,67746,0.003706,0.022239,0.856899,0.022239,0.143101,0.043353,0.012963,1.71563,0.894737
1504,1490,66363,248,67750,0.003647,0.021959,0.857307,0.021959,0.142693,0.042822,0.012793,1.716447,0.895522
1505,1465,66388,240,67758,0.00353,0.021591,0.859238,0.021591,0.140762,0.042123,0.012551,1.720311,0.895833
1506,1448,66405,240,67758,0.00353,0.02134,0.85782,0.02134,0.14218,0.041644,0.012425,1.717473,0.897436
1507,1438,66415,239,67759,0.003515,0.021193,0.857484,0.021193,0.142516,0.041363,0.012344,1.7168,0.9
1508,1384,66469,228,67770,0.003353,0.020397,0.858561,0.020397,0.141439,0.039847,0.011866,1.718956,0.900943
1509,1358,66495,220,67778,0.003235,0.020014,0.860583,0.020014,0.139417,0.039118,0.011616,1.723005,0.903226
1510,1326,66527,212,67786,0.003118,0.019542,0.862159,0.019542,0.137841,0.038218,0.011321,1.72616,0.903846
1511,1298,66555,207,67791,0.003044,0.01913,0.862458,0.01913,0.137542,0.037429,0.011078,1.72676,0.90625
1512,1250,66603,201,67797,0.002956,0.018422,0.861475,0.018422,0.138525,0.036073,0.010681,1.724791,0.906977
1513,1229,66624,195,67803,0.002868,0.018113,0.863062,0.018113,0.136938,0.035481,0.010482,1.727968,0.909091
1514,1218,66635,191,67807,0.002809,0.017951,0.864443,0.017951,0.135557,0.035171,0.010372,1.730733,0.910781
1515,1186,66667,184,67814,0.002706,0.017479,0.865693,0.017479,0.134307,0.034266,0.010085,1.733237,0.911765
1516,1129,66724,178,67820,0.002618,0.016639,0.86381,0.016639,0.13619,0.032649,0.009621,1.729466,0.912409
1517,1121,66732,177,67821,0.002603,0.016521,0.863636,0.016521,0.136364,0.032422,0.009555,1.729118,0.915888
1518,1104,66749,175,67823,0.002574,0.01627,0.863174,0.01627,0.136826,0.031939,0.009415,1.728193,0.916084
1519,1083,66770,174,67824,0.002559,0.015961,0.861575,0.015961,0.138425,0.031341,0.009253,1.724992,0.916667
1520,1067,66786,165,67833,0.002427,0.015725,0.866071,0.015725,0.133929,0.030889,0.009069,1.733994,0.917431
1521,1051,66802,163,67835,0.002397,0.015489,0.865733,0.015489,0.134267,0.030434,0.008936,1.733316,0.918919
1522,1036,66817,161,67837,0.002368,0.015268,0.865497,0.015268,0.134503,0.030007,0.008811,1.732844,0.92
1523,985,66868,159,67839,0.002338,0.014517,0.861014,0.014517,0.138986,0.028552,0.008421,1.723868,0.922414
1524,966,66887,157,67841,0.002309,0.014237,0.860196,0.014237,0.139804,0.02801,0.008266,1.72223,0.923077
1525,963,66890,154,67844,0.002265,0.014192,0.862131,0.014192,0.137869,0.027925,0.008222,1.726104,0.92437
1526,945,66908,142,67856,0.002088,0.013927,0.869365,0.013927,0.130635,0.027415,0.008001,1.740588,0.930233
1527,895,66958,138,67860,0.002029,0.01319,0.866409,0.01319,0.133591,0.025985,0.007604,1.734669,0.934066
1528,855,66998,134,67864,0.001971,0.012601,0.86451,0.012601,0.13549,0.024839,0.00728,1.730867,0.935484
1529,801,67052,122,67876,0.001794,0.011805,0.867822,0.011805,0.132178,0.023293,0.006794,1.737499,0.9375
1530,786,67067,119,67879,0.00175,0.011584,0.868508,0.011584,0.131492,0.022863,0.006662,1.738873,0.938017
1531,752,67101,114,67884,0.001677,0.011083,0.86836,0.011083,0.13164,0.021886,0.006375,1.738576,0.94
1532,712,67141,105,67893,0.001544,0.010493,0.871481,0.010493,0.128519,0.020737,0.006014,1.744824,0.945455
1533,689,67164,103,67895,0.001515,0.010154,0.869949,0.010154,0.130051,0.020074,0.00583,1.741758,0.948276
1534,676,67177,100,67898,0.001471,0.009963,0.871134,0.009963,0.128866,0.0197,0.005712,1.74413,0.948718
1535,645,67208,94,67904,0.001382,0.009506,0.872801,0.009506,0.127199,0.018807,0.00544,1.747467,0.95
1536,638,67215,86,67912,0.001265,0.009403,0.881215,0.009403,0.118785,0.018607,0.005329,1.764314,0.953488
1537,619,67234,83,67915,0.001221,0.009123,0.881766,0.009123,0.118234,0.018058,0.005167,1.765417,0.953846
1538,591,67262,76,67922,0.001118,0.00871,0.886057,0.00871,0.113943,0.01725,0.00491,1.774007,0.955556
1539,569,67284,73,67925,0.001074,0.008386,0.886293,0.008386,0.113707,0.016614,0.004726,1.77448,0.956522
1540,527,67326,67,67931,0.000985,0.007767,0.887205,0.007767,0.112795,0.015399,0.004372,1.776307,0.961538
1541,517,67336,63,67935,0.000926,0.007619,0.891379,0.007619,0.108621,0.01511,0.004269,1.784663,0.968254
1542,483,67370,60,67938,0.000882,0.007118,0.889503,0.007118,0.110497,0.014124,0.003997,1.780906,0.970588
1543,471,67382,56,67942,0.000824,0.006941,0.893738,0.006941,0.106262,0.013776,0.003879,1.789386,0.975
1544,455,67398,52,67946,0.000765,0.006706,0.897436,0.006706,0.102564,0.013312,0.003732,1.79679,0.978723
1545,436,67417,48,67950,0.000706,0.006426,0.900826,0.006426,0.099174,0.01276,0.003563,1.803578,1
1546,0,67853,0,67998,0,0,?,0,?,?,0,?,1.00001